*HEADING
Cylindrical-bending strip, community FSDT composite section
** case caseB: plies as4(62.5mm/0), as4(62.5mm/90), as4(62.5mm/90), as4(62.5mm/0)
** S = a/h = 4,  h = 0.25 m
** PREDICTED mid-span |w|: MSG closed form 1.634987e-06 m ; exact 3-D 1.583729e-06 m
**   (check the .dat U3 at node NMID against these after the job)
** COMMUNITY FSDT variant: composite section, Abaqus ABD + its own shear
** span a = 1 m, q0 = 10000 Pa, 100 S4 elements; load q0*sin(pi*x/a) per element
*NODE
1, 0.00000000, 0.00000000, 0.0
2, 0.00000000, 0.01000000, 0.0
3, 0.01000000, 0.00000000, 0.0
4, 0.01000000, 0.01000000, 0.0
5, 0.02000000, 0.00000000, 0.0
6, 0.02000000, 0.01000000, 0.0
7, 0.03000000, 0.00000000, 0.0
8, 0.03000000, 0.01000000, 0.0
9, 0.04000000, 0.00000000, 0.0
10, 0.04000000, 0.01000000, 0.0
11, 0.05000000, 0.00000000, 0.0
12, 0.05000000, 0.01000000, 0.0
13, 0.06000000, 0.00000000, 0.0
14, 0.06000000, 0.01000000, 0.0
15, 0.07000000, 0.00000000, 0.0
16, 0.07000000, 0.01000000, 0.0
17, 0.08000000, 0.00000000, 0.0
18, 0.08000000, 0.01000000, 0.0
19, 0.09000000, 0.00000000, 0.0
20, 0.09000000, 0.01000000, 0.0
21, 0.10000000, 0.00000000, 0.0
22, 0.10000000, 0.01000000, 0.0
23, 0.11000000, 0.00000000, 0.0
24, 0.11000000, 0.01000000, 0.0
25, 0.12000000, 0.00000000, 0.0
26, 0.12000000, 0.01000000, 0.0
27, 0.13000000, 0.00000000, 0.0
28, 0.13000000, 0.01000000, 0.0
29, 0.14000000, 0.00000000, 0.0
30, 0.14000000, 0.01000000, 0.0
31, 0.15000000, 0.00000000, 0.0
32, 0.15000000, 0.01000000, 0.0
33, 0.16000000, 0.00000000, 0.0
34, 0.16000000, 0.01000000, 0.0
35, 0.17000000, 0.00000000, 0.0
36, 0.17000000, 0.01000000, 0.0
37, 0.18000000, 0.00000000, 0.0
38, 0.18000000, 0.01000000, 0.0
39, 0.19000000, 0.00000000, 0.0
40, 0.19000000, 0.01000000, 0.0
41, 0.20000000, 0.00000000, 0.0
42, 0.20000000, 0.01000000, 0.0
43, 0.21000000, 0.00000000, 0.0
44, 0.21000000, 0.01000000, 0.0
45, 0.22000000, 0.00000000, 0.0
46, 0.22000000, 0.01000000, 0.0
47, 0.23000000, 0.00000000, 0.0
48, 0.23000000, 0.01000000, 0.0
49, 0.24000000, 0.00000000, 0.0
50, 0.24000000, 0.01000000, 0.0
51, 0.25000000, 0.00000000, 0.0
52, 0.25000000, 0.01000000, 0.0
53, 0.26000000, 0.00000000, 0.0
54, 0.26000000, 0.01000000, 0.0
55, 0.27000000, 0.00000000, 0.0
56, 0.27000000, 0.01000000, 0.0
57, 0.28000000, 0.00000000, 0.0
58, 0.28000000, 0.01000000, 0.0
59, 0.29000000, 0.00000000, 0.0
60, 0.29000000, 0.01000000, 0.0
61, 0.30000000, 0.00000000, 0.0
62, 0.30000000, 0.01000000, 0.0
63, 0.31000000, 0.00000000, 0.0
64, 0.31000000, 0.01000000, 0.0
65, 0.32000000, 0.00000000, 0.0
66, 0.32000000, 0.01000000, 0.0
67, 0.33000000, 0.00000000, 0.0
68, 0.33000000, 0.01000000, 0.0
69, 0.34000000, 0.00000000, 0.0
70, 0.34000000, 0.01000000, 0.0
71, 0.35000000, 0.00000000, 0.0
72, 0.35000000, 0.01000000, 0.0
73, 0.36000000, 0.00000000, 0.0
74, 0.36000000, 0.01000000, 0.0
75, 0.37000000, 0.00000000, 0.0
76, 0.37000000, 0.01000000, 0.0
77, 0.38000000, 0.00000000, 0.0
78, 0.38000000, 0.01000000, 0.0
79, 0.39000000, 0.00000000, 0.0
80, 0.39000000, 0.01000000, 0.0
81, 0.40000000, 0.00000000, 0.0
82, 0.40000000, 0.01000000, 0.0
83, 0.41000000, 0.00000000, 0.0
84, 0.41000000, 0.01000000, 0.0
85, 0.42000000, 0.00000000, 0.0
86, 0.42000000, 0.01000000, 0.0
87, 0.43000000, 0.00000000, 0.0
88, 0.43000000, 0.01000000, 0.0
89, 0.44000000, 0.00000000, 0.0
90, 0.44000000, 0.01000000, 0.0
91, 0.45000000, 0.00000000, 0.0
92, 0.45000000, 0.01000000, 0.0
93, 0.46000000, 0.00000000, 0.0
94, 0.46000000, 0.01000000, 0.0
95, 0.47000000, 0.00000000, 0.0
96, 0.47000000, 0.01000000, 0.0
97, 0.48000000, 0.00000000, 0.0
98, 0.48000000, 0.01000000, 0.0
99, 0.49000000, 0.00000000, 0.0
100, 0.49000000, 0.01000000, 0.0
101, 0.50000000, 0.00000000, 0.0
102, 0.50000000, 0.01000000, 0.0
103, 0.51000000, 0.00000000, 0.0
104, 0.51000000, 0.01000000, 0.0
105, 0.52000000, 0.00000000, 0.0
106, 0.52000000, 0.01000000, 0.0
107, 0.53000000, 0.00000000, 0.0
108, 0.53000000, 0.01000000, 0.0
109, 0.54000000, 0.00000000, 0.0
110, 0.54000000, 0.01000000, 0.0
111, 0.55000000, 0.00000000, 0.0
112, 0.55000000, 0.01000000, 0.0
113, 0.56000000, 0.00000000, 0.0
114, 0.56000000, 0.01000000, 0.0
115, 0.57000000, 0.00000000, 0.0
116, 0.57000000, 0.01000000, 0.0
117, 0.58000000, 0.00000000, 0.0
118, 0.58000000, 0.01000000, 0.0
119, 0.59000000, 0.00000000, 0.0
120, 0.59000000, 0.01000000, 0.0
121, 0.60000000, 0.00000000, 0.0
122, 0.60000000, 0.01000000, 0.0
123, 0.61000000, 0.00000000, 0.0
124, 0.61000000, 0.01000000, 0.0
125, 0.62000000, 0.00000000, 0.0
126, 0.62000000, 0.01000000, 0.0
127, 0.63000000, 0.00000000, 0.0
128, 0.63000000, 0.01000000, 0.0
129, 0.64000000, 0.00000000, 0.0
130, 0.64000000, 0.01000000, 0.0
131, 0.65000000, 0.00000000, 0.0
132, 0.65000000, 0.01000000, 0.0
133, 0.66000000, 0.00000000, 0.0
134, 0.66000000, 0.01000000, 0.0
135, 0.67000000, 0.00000000, 0.0
136, 0.67000000, 0.01000000, 0.0
137, 0.68000000, 0.00000000, 0.0
138, 0.68000000, 0.01000000, 0.0
139, 0.69000000, 0.00000000, 0.0
140, 0.69000000, 0.01000000, 0.0
141, 0.70000000, 0.00000000, 0.0
142, 0.70000000, 0.01000000, 0.0
143, 0.71000000, 0.00000000, 0.0
144, 0.71000000, 0.01000000, 0.0
145, 0.72000000, 0.00000000, 0.0
146, 0.72000000, 0.01000000, 0.0
147, 0.73000000, 0.00000000, 0.0
148, 0.73000000, 0.01000000, 0.0
149, 0.74000000, 0.00000000, 0.0
150, 0.74000000, 0.01000000, 0.0
151, 0.75000000, 0.00000000, 0.0
152, 0.75000000, 0.01000000, 0.0
153, 0.76000000, 0.00000000, 0.0
154, 0.76000000, 0.01000000, 0.0
155, 0.77000000, 0.00000000, 0.0
156, 0.77000000, 0.01000000, 0.0
157, 0.78000000, 0.00000000, 0.0
158, 0.78000000, 0.01000000, 0.0
159, 0.79000000, 0.00000000, 0.0
160, 0.79000000, 0.01000000, 0.0
161, 0.80000000, 0.00000000, 0.0
162, 0.80000000, 0.01000000, 0.0
163, 0.81000000, 0.00000000, 0.0
164, 0.81000000, 0.01000000, 0.0
165, 0.82000000, 0.00000000, 0.0
166, 0.82000000, 0.01000000, 0.0
167, 0.83000000, 0.00000000, 0.0
168, 0.83000000, 0.01000000, 0.0
169, 0.84000000, 0.00000000, 0.0
170, 0.84000000, 0.01000000, 0.0
171, 0.85000000, 0.00000000, 0.0
172, 0.85000000, 0.01000000, 0.0
173, 0.86000000, 0.00000000, 0.0
174, 0.86000000, 0.01000000, 0.0
175, 0.87000000, 0.00000000, 0.0
176, 0.87000000, 0.01000000, 0.0
177, 0.88000000, 0.00000000, 0.0
178, 0.88000000, 0.01000000, 0.0
179, 0.89000000, 0.00000000, 0.0
180, 0.89000000, 0.01000000, 0.0
181, 0.90000000, 0.00000000, 0.0
182, 0.90000000, 0.01000000, 0.0
183, 0.91000000, 0.00000000, 0.0
184, 0.91000000, 0.01000000, 0.0
185, 0.92000000, 0.00000000, 0.0
186, 0.92000000, 0.01000000, 0.0
187, 0.93000000, 0.00000000, 0.0
188, 0.93000000, 0.01000000, 0.0
189, 0.94000000, 0.00000000, 0.0
190, 0.94000000, 0.01000000, 0.0
191, 0.95000000, 0.00000000, 0.0
192, 0.95000000, 0.01000000, 0.0
193, 0.96000000, 0.00000000, 0.0
194, 0.96000000, 0.01000000, 0.0
195, 0.97000000, 0.00000000, 0.0
196, 0.97000000, 0.01000000, 0.0
197, 0.98000000, 0.00000000, 0.0
198, 0.98000000, 0.01000000, 0.0
199, 0.99000000, 0.00000000, 0.0
200, 0.99000000, 0.01000000, 0.0
201, 1.00000000, 0.00000000, 0.0
202, 1.00000000, 0.01000000, 0.0
*ELEMENT, TYPE=S4, ELSET=EALL
1, 1, 3, 4, 2
2, 3, 5, 6, 4
3, 5, 7, 8, 6
4, 7, 9, 10, 8
5, 9, 11, 12, 10
6, 11, 13, 14, 12
7, 13, 15, 16, 14
8, 15, 17, 18, 16
9, 17, 19, 20, 18
10, 19, 21, 22, 20
11, 21, 23, 24, 22
12, 23, 25, 26, 24
13, 25, 27, 28, 26
14, 27, 29, 30, 28
15, 29, 31, 32, 30
16, 31, 33, 34, 32
17, 33, 35, 36, 34
18, 35, 37, 38, 36
19, 37, 39, 40, 38
20, 39, 41, 42, 40
21, 41, 43, 44, 42
22, 43, 45, 46, 44
23, 45, 47, 48, 46
24, 47, 49, 50, 48
25, 49, 51, 52, 50
26, 51, 53, 54, 52
27, 53, 55, 56, 54
28, 55, 57, 58, 56
29, 57, 59, 60, 58
30, 59, 61, 62, 60
31, 61, 63, 64, 62
32, 63, 65, 66, 64
33, 65, 67, 68, 66
34, 67, 69, 70, 68
35, 69, 71, 72, 70
36, 71, 73, 74, 72
37, 73, 75, 76, 74
38, 75, 77, 78, 76
39, 77, 79, 80, 78
40, 79, 81, 82, 80
41, 81, 83, 84, 82
42, 83, 85, 86, 84
43, 85, 87, 88, 86
44, 87, 89, 90, 88
45, 89, 91, 92, 90
46, 91, 93, 94, 92
47, 93, 95, 96, 94
48, 95, 97, 98, 96
49, 97, 99, 100, 98
50, 99, 101, 102, 100
51, 101, 103, 104, 102
52, 103, 105, 106, 104
53, 105, 107, 108, 106
54, 107, 109, 110, 108
55, 109, 111, 112, 110
56, 111, 113, 114, 112
57, 113, 115, 116, 114
58, 115, 117, 118, 116
59, 117, 119, 120, 118
60, 119, 121, 122, 120
61, 121, 123, 124, 122
62, 123, 125, 126, 124
63, 125, 127, 128, 126
64, 127, 129, 130, 128
65, 129, 131, 132, 130
66, 131, 133, 134, 132
67, 133, 135, 136, 134
68, 135, 137, 138, 136
69, 137, 139, 140, 138
70, 139, 141, 142, 140
71, 141, 143, 144, 142
72, 143, 145, 146, 144
73, 145, 147, 148, 146
74, 147, 149, 150, 148
75, 149, 151, 152, 150
76, 151, 153, 154, 152
77, 153, 155, 156, 154
78, 155, 157, 158, 156
79, 157, 159, 160, 158
80, 159, 161, 162, 160
81, 161, 163, 164, 162
82, 163, 165, 166, 164
83, 165, 167, 168, 166
84, 167, 169, 170, 168
85, 169, 171, 172, 170
86, 171, 173, 174, 172
87, 173, 175, 176, 174
88, 175, 177, 178, 176
89, 177, 179, 180, 178
90, 179, 181, 182, 180
91, 181, 183, 184, 182
92, 183, 185, 186, 184
93, 185, 187, 188, 186
94, 187, 189, 190, 188
95, 189, 191, 192, 190
96, 191, 193, 194, 192
97, 193, 195, 196, 194
98, 195, 197, 198, 196
99, 197, 199, 200, 198
100, 199, 201, 202, 200
*ELSET, ELSET=EMID
50
*ELSET, ELSET=EEND
1
*NSET, NSET=NX0
1, 2
*NSET, NSET=NXA
201, 202
*NSET, NSET=NMID
101
*NSET, NSET=NALL, GENERATE
1, 202, 1
**
** ---- ply materials (lamina) ----
*MATERIAL, NAME=AS4
*ELASTIC, TYPE=LAMINA
1.810000e+11, 1.030000e+10, 0.28, 7.170000e+09, 7.170000e+09, 3.500000e+09
** ---- community FSDT: the ply stack; Abaqus builds ABD + shear ----
*SHELL SECTION, ELSET=EALL, COMPOSITE
6.25000000e-02, 3, AS4, 0
6.25000000e-02, 3, AS4, 90
6.25000000e-02, 3, AS4, 90
6.25000000e-02, 3, AS4, 0
**
** ---- cylindrical bending + simple supports ----
*BOUNDARY
NALL, 2, 2
NALL, 4, 4
NALL, 6, 6
NX0, 3, 3
NXA, 3, 3
NX0, 1, 1
**
*STEP, NAME=SINELOAD
*STATIC
*DLOAD
1, P, 1.570732e+02
2, P, 4.710645e+02
3, P, 7.845910e+02
4, P, 1.097343e+03
5, P, 1.409012e+03
6, P, 1.719291e+03
7, P, 2.027873e+03
8, P, 2.334454e+03
9, P, 2.638730e+03
10, P, 2.940403e+03
11, P, 3.239174e+03
12, P, 3.534748e+03
13, P, 3.826834e+03
14, P, 4.115144e+03
15, P, 4.399392e+03
16, P, 4.679298e+03
17, P, 4.954587e+03
18, P, 5.224986e+03
19, P, 5.490228e+03
20, P, 5.750053e+03
21, P, 6.004202e+03
22, P, 6.252427e+03
23, P, 6.494480e+03
24, P, 6.730125e+03
25, P, 6.959128e+03
26, P, 7.181263e+03
27, P, 7.396311e+03
28, P, 7.604060e+03
29, P, 7.804304e+03
30, P, 7.996847e+03
31, P, 8.181497e+03
32, P, 8.358074e+03
33, P, 8.526402e+03
34, P, 8.686315e+03
35, P, 8.837656e+03
36, P, 8.980276e+03
37, P, 9.114033e+03
38, P, 9.238795e+03
39, P, 9.354440e+03
40, P, 9.460854e+03
41, P, 9.557930e+03
42, P, 9.645574e+03
43, P, 9.723699e+03
44, P, 9.792228e+03
45, P, 9.851093e+03
46, P, 9.900237e+03
47, P, 9.939610e+03
48, P, 9.969173e+03
49, P, 9.988899e+03
50, P, 9.998766e+03
51, P, 9.998766e+03
52, P, 9.988899e+03
53, P, 9.969173e+03
54, P, 9.939610e+03
55, P, 9.900237e+03
56, P, 9.851093e+03
57, P, 9.792228e+03
58, P, 9.723699e+03
59, P, 9.645574e+03
60, P, 9.557930e+03
61, P, 9.460854e+03
62, P, 9.354440e+03
63, P, 9.238795e+03
64, P, 9.114033e+03
65, P, 8.980276e+03
66, P, 8.837656e+03
67, P, 8.686315e+03
68, P, 8.526402e+03
69, P, 8.358074e+03
70, P, 8.181497e+03
71, P, 7.996847e+03
72, P, 7.804304e+03
73, P, 7.604060e+03
74, P, 7.396311e+03
75, P, 7.181263e+03
76, P, 6.959128e+03
77, P, 6.730125e+03
78, P, 6.494480e+03
79, P, 6.252427e+03
80, P, 6.004202e+03
81, P, 5.750053e+03
82, P, 5.490228e+03
83, P, 5.224986e+03
84, P, 4.954587e+03
85, P, 4.679298e+03
86, P, 4.399392e+03
87, P, 4.115144e+03
88, P, 3.826834e+03
89, P, 3.534748e+03
90, P, 3.239174e+03
91, P, 2.940403e+03
92, P, 2.638730e+03
93, P, 2.334454e+03
94, P, 2.027873e+03
95, P, 1.719291e+03
96, P, 1.409012e+03
97, P, 1.097343e+03
98, P, 7.845910e+02
99, P, 4.710645e+02
100, P, 1.570732e+02
*OUTPUT, FIELD
*ELEMENT OUTPUT
SF, SM
*NODE OUTPUT
U
*NODE PRINT, NSET=NMID
U
*EL PRINT, ELSET=EMID
SF, SM
*EL PRINT, ELSET=EEND
SF, SM
*END STEP
