*HEADING
OpenSG-RM static cylindrical bending, yu2003_case1
*NODE
1, 0.00000000, 0.00000000, 0.0
2, 0.05000000, 0.00000000, 0.0
3, 0.10000000, 0.00000000, 0.0
4, 0.15000000, 0.00000000, 0.0
5, 0.20000000, 0.00000000, 0.0
6, 0.25000000, 0.00000000, 0.0
7, 0.30000000, 0.00000000, 0.0
8, 0.35000000, 0.00000000, 0.0
9, 0.40000000, 0.00000000, 0.0
10, 0.45000000, 0.00000000, 0.0
11, 0.50000000, 0.00000000, 0.0
12, 0.55000000, 0.00000000, 0.0
13, 0.60000000, 0.00000000, 0.0
14, 0.65000000, 0.00000000, 0.0
15, 0.70000000, 0.00000000, 0.0
16, 0.75000000, 0.00000000, 0.0
17, 0.80000000, 0.00000000, 0.0
18, 0.85000000, 0.00000000, 0.0
19, 0.90000000, 0.00000000, 0.0
20, 0.95000000, 0.00000000, 0.0
21, 1.00000000, 0.00000000, 0.0
22, 1.05000000, 0.00000000, 0.0
23, 1.10000000, 0.00000000, 0.0
24, 1.15000000, 0.00000000, 0.0
25, 1.20000000, 0.00000000, 0.0
26, 1.25000000, 0.00000000, 0.0
27, 1.30000000, 0.00000000, 0.0
28, 1.35000000, 0.00000000, 0.0
29, 1.40000000, 0.00000000, 0.0
30, 1.45000000, 0.00000000, 0.0
31, 1.50000000, 0.00000000, 0.0
32, 1.55000000, 0.00000000, 0.0
33, 1.60000000, 0.00000000, 0.0
34, 1.65000000, 0.00000000, 0.0
35, 1.70000000, 0.00000000, 0.0
36, 1.75000000, 0.00000000, 0.0
37, 1.80000000, 0.00000000, 0.0
38, 1.85000000, 0.00000000, 0.0
39, 1.90000000, 0.00000000, 0.0
40, 1.95000000, 0.00000000, 0.0
41, 2.00000000, 0.00000000, 0.0
42, 2.05000000, 0.00000000, 0.0
43, 2.10000000, 0.00000000, 0.0
44, 2.15000000, 0.00000000, 0.0
45, 2.20000000, 0.00000000, 0.0
46, 2.25000000, 0.00000000, 0.0
47, 2.30000000, 0.00000000, 0.0
48, 2.35000000, 0.00000000, 0.0
49, 2.40000000, 0.00000000, 0.0
50, 2.45000000, 0.00000000, 0.0
51, 2.50000000, 0.00000000, 0.0
52, 2.55000000, 0.00000000, 0.0
53, 2.60000000, 0.00000000, 0.0
54, 2.65000000, 0.00000000, 0.0
55, 2.70000000, 0.00000000, 0.0
56, 2.75000000, 0.00000000, 0.0
57, 2.80000000, 0.00000000, 0.0
58, 2.85000000, 0.00000000, 0.0
59, 2.90000000, 0.00000000, 0.0
60, 2.95000000, 0.00000000, 0.0
61, 3.00000000, 0.00000000, 0.0
62, 3.05000000, 0.00000000, 0.0
63, 3.10000000, 0.00000000, 0.0
64, 3.15000000, 0.00000000, 0.0
65, 3.20000000, 0.00000000, 0.0
66, 3.25000000, 0.00000000, 0.0
67, 3.30000000, 0.00000000, 0.0
68, 3.35000000, 0.00000000, 0.0
69, 3.40000000, 0.00000000, 0.0
70, 3.45000000, 0.00000000, 0.0
71, 3.50000000, 0.00000000, 0.0
72, 3.55000000, 0.00000000, 0.0
73, 3.60000000, 0.00000000, 0.0
74, 3.65000000, 0.00000000, 0.0
75, 3.70000000, 0.00000000, 0.0
76, 3.75000000, 0.00000000, 0.0
77, 3.80000000, 0.00000000, 0.0
78, 3.85000000, 0.00000000, 0.0
79, 3.90000000, 0.00000000, 0.0
80, 3.95000000, 0.00000000, 0.0
81, 4.00000000, 0.00000000, 0.0
82, 0.00000000, 0.05000000, 0.0
83, 0.10000000, 0.05000000, 0.0
84, 0.20000000, 0.05000000, 0.0
85, 0.30000000, 0.05000000, 0.0
86, 0.40000000, 0.05000000, 0.0
87, 0.50000000, 0.05000000, 0.0
88, 0.60000000, 0.05000000, 0.0
89, 0.70000000, 0.05000000, 0.0
90, 0.80000000, 0.05000000, 0.0
91, 0.90000000, 0.05000000, 0.0
92, 1.00000000, 0.05000000, 0.0
93, 1.10000000, 0.05000000, 0.0
94, 1.20000000, 0.05000000, 0.0
95, 1.30000000, 0.05000000, 0.0
96, 1.40000000, 0.05000000, 0.0
97, 1.50000000, 0.05000000, 0.0
98, 1.60000000, 0.05000000, 0.0
99, 1.70000000, 0.05000000, 0.0
100, 1.80000000, 0.05000000, 0.0
101, 1.90000000, 0.05000000, 0.0
102, 2.00000000, 0.05000000, 0.0
103, 2.10000000, 0.05000000, 0.0
104, 2.20000000, 0.05000000, 0.0
105, 2.30000000, 0.05000000, 0.0
106, 2.40000000, 0.05000000, 0.0
107, 2.50000000, 0.05000000, 0.0
108, 2.60000000, 0.05000000, 0.0
109, 2.70000000, 0.05000000, 0.0
110, 2.80000000, 0.05000000, 0.0
111, 2.90000000, 0.05000000, 0.0
112, 3.00000000, 0.05000000, 0.0
113, 3.10000000, 0.05000000, 0.0
114, 3.20000000, 0.05000000, 0.0
115, 3.30000000, 0.05000000, 0.0
116, 3.40000000, 0.05000000, 0.0
117, 3.50000000, 0.05000000, 0.0
118, 3.60000000, 0.05000000, 0.0
119, 3.70000000, 0.05000000, 0.0
120, 3.80000000, 0.05000000, 0.0
121, 3.90000000, 0.05000000, 0.0
122, 4.00000000, 0.05000000, 0.0
123, 0.00000000, 0.10000000, 0.0
124, 0.05000000, 0.10000000, 0.0
125, 0.10000000, 0.10000000, 0.0
126, 0.15000000, 0.10000000, 0.0
127, 0.20000000, 0.10000000, 0.0
128, 0.25000000, 0.10000000, 0.0
129, 0.30000000, 0.10000000, 0.0
130, 0.35000000, 0.10000000, 0.0
131, 0.40000000, 0.10000000, 0.0
132, 0.45000000, 0.10000000, 0.0
133, 0.50000000, 0.10000000, 0.0
134, 0.55000000, 0.10000000, 0.0
135, 0.60000000, 0.10000000, 0.0
136, 0.65000000, 0.10000000, 0.0
137, 0.70000000, 0.10000000, 0.0
138, 0.75000000, 0.10000000, 0.0
139, 0.80000000, 0.10000000, 0.0
140, 0.85000000, 0.10000000, 0.0
141, 0.90000000, 0.10000000, 0.0
142, 0.95000000, 0.10000000, 0.0
143, 1.00000000, 0.10000000, 0.0
144, 1.05000000, 0.10000000, 0.0
145, 1.10000000, 0.10000000, 0.0
146, 1.15000000, 0.10000000, 0.0
147, 1.20000000, 0.10000000, 0.0
148, 1.25000000, 0.10000000, 0.0
149, 1.30000000, 0.10000000, 0.0
150, 1.35000000, 0.10000000, 0.0
151, 1.40000000, 0.10000000, 0.0
152, 1.45000000, 0.10000000, 0.0
153, 1.50000000, 0.10000000, 0.0
154, 1.55000000, 0.10000000, 0.0
155, 1.60000000, 0.10000000, 0.0
156, 1.65000000, 0.10000000, 0.0
157, 1.70000000, 0.10000000, 0.0
158, 1.75000000, 0.10000000, 0.0
159, 1.80000000, 0.10000000, 0.0
160, 1.85000000, 0.10000000, 0.0
161, 1.90000000, 0.10000000, 0.0
162, 1.95000000, 0.10000000, 0.0
163, 2.00000000, 0.10000000, 0.0
164, 2.05000000, 0.10000000, 0.0
165, 2.10000000, 0.10000000, 0.0
166, 2.15000000, 0.10000000, 0.0
167, 2.20000000, 0.10000000, 0.0
168, 2.25000000, 0.10000000, 0.0
169, 2.30000000, 0.10000000, 0.0
170, 2.35000000, 0.10000000, 0.0
171, 2.40000000, 0.10000000, 0.0
172, 2.45000000, 0.10000000, 0.0
173, 2.50000000, 0.10000000, 0.0
174, 2.55000000, 0.10000000, 0.0
175, 2.60000000, 0.10000000, 0.0
176, 2.65000000, 0.10000000, 0.0
177, 2.70000000, 0.10000000, 0.0
178, 2.75000000, 0.10000000, 0.0
179, 2.80000000, 0.10000000, 0.0
180, 2.85000000, 0.10000000, 0.0
181, 2.90000000, 0.10000000, 0.0
182, 2.95000000, 0.10000000, 0.0
183, 3.00000000, 0.10000000, 0.0
184, 3.05000000, 0.10000000, 0.0
185, 3.10000000, 0.10000000, 0.0
186, 3.15000000, 0.10000000, 0.0
187, 3.20000000, 0.10000000, 0.0
188, 3.25000000, 0.10000000, 0.0
189, 3.30000000, 0.10000000, 0.0
190, 3.35000000, 0.10000000, 0.0
191, 3.40000000, 0.10000000, 0.0
192, 3.45000000, 0.10000000, 0.0
193, 3.50000000, 0.10000000, 0.0
194, 3.55000000, 0.10000000, 0.0
195, 3.60000000, 0.10000000, 0.0
196, 3.65000000, 0.10000000, 0.0
197, 3.70000000, 0.10000000, 0.0
198, 3.75000000, 0.10000000, 0.0
199, 3.80000000, 0.10000000, 0.0
200, 3.85000000, 0.10000000, 0.0
201, 3.90000000, 0.10000000, 0.0
202, 3.95000000, 0.10000000, 0.0
203, 4.00000000, 0.10000000, 0.0
204, 0.00000000, 0.15000000, 0.0
205, 0.10000000, 0.15000000, 0.0
206, 0.20000000, 0.15000000, 0.0
207, 0.30000000, 0.15000000, 0.0
208, 0.40000000, 0.15000000, 0.0
209, 0.50000000, 0.15000000, 0.0
210, 0.60000000, 0.15000000, 0.0
211, 0.70000000, 0.15000000, 0.0
212, 0.80000000, 0.15000000, 0.0
213, 0.90000000, 0.15000000, 0.0
214, 1.00000000, 0.15000000, 0.0
215, 1.10000000, 0.15000000, 0.0
216, 1.20000000, 0.15000000, 0.0
217, 1.30000000, 0.15000000, 0.0
218, 1.40000000, 0.15000000, 0.0
219, 1.50000000, 0.15000000, 0.0
220, 1.60000000, 0.15000000, 0.0
221, 1.70000000, 0.15000000, 0.0
222, 1.80000000, 0.15000000, 0.0
223, 1.90000000, 0.15000000, 0.0
224, 2.00000000, 0.15000000, 0.0
225, 2.10000000, 0.15000000, 0.0
226, 2.20000000, 0.15000000, 0.0
227, 2.30000000, 0.15000000, 0.0
228, 2.40000000, 0.15000000, 0.0
229, 2.50000000, 0.15000000, 0.0
230, 2.60000000, 0.15000000, 0.0
231, 2.70000000, 0.15000000, 0.0
232, 2.80000000, 0.15000000, 0.0
233, 2.90000000, 0.15000000, 0.0
234, 3.00000000, 0.15000000, 0.0
235, 3.10000000, 0.15000000, 0.0
236, 3.20000000, 0.15000000, 0.0
237, 3.30000000, 0.15000000, 0.0
238, 3.40000000, 0.15000000, 0.0
239, 3.50000000, 0.15000000, 0.0
240, 3.60000000, 0.15000000, 0.0
241, 3.70000000, 0.15000000, 0.0
242, 3.80000000, 0.15000000, 0.0
243, 3.90000000, 0.15000000, 0.0
244, 4.00000000, 0.15000000, 0.0
245, 0.00000000, 0.20000000, 0.0
246, 0.05000000, 0.20000000, 0.0
247, 0.10000000, 0.20000000, 0.0
248, 0.15000000, 0.20000000, 0.0
249, 0.20000000, 0.20000000, 0.0
250, 0.25000000, 0.20000000, 0.0
251, 0.30000000, 0.20000000, 0.0
252, 0.35000000, 0.20000000, 0.0
253, 0.40000000, 0.20000000, 0.0
254, 0.45000000, 0.20000000, 0.0
255, 0.50000000, 0.20000000, 0.0
256, 0.55000000, 0.20000000, 0.0
257, 0.60000000, 0.20000000, 0.0
258, 0.65000000, 0.20000000, 0.0
259, 0.70000000, 0.20000000, 0.0
260, 0.75000000, 0.20000000, 0.0
261, 0.80000000, 0.20000000, 0.0
262, 0.85000000, 0.20000000, 0.0
263, 0.90000000, 0.20000000, 0.0
264, 0.95000000, 0.20000000, 0.0
265, 1.00000000, 0.20000000, 0.0
266, 1.05000000, 0.20000000, 0.0
267, 1.10000000, 0.20000000, 0.0
268, 1.15000000, 0.20000000, 0.0
269, 1.20000000, 0.20000000, 0.0
270, 1.25000000, 0.20000000, 0.0
271, 1.30000000, 0.20000000, 0.0
272, 1.35000000, 0.20000000, 0.0
273, 1.40000000, 0.20000000, 0.0
274, 1.45000000, 0.20000000, 0.0
275, 1.50000000, 0.20000000, 0.0
276, 1.55000000, 0.20000000, 0.0
277, 1.60000000, 0.20000000, 0.0
278, 1.65000000, 0.20000000, 0.0
279, 1.70000000, 0.20000000, 0.0
280, 1.75000000, 0.20000000, 0.0
281, 1.80000000, 0.20000000, 0.0
282, 1.85000000, 0.20000000, 0.0
283, 1.90000000, 0.20000000, 0.0
284, 1.95000000, 0.20000000, 0.0
285, 2.00000000, 0.20000000, 0.0
286, 2.05000000, 0.20000000, 0.0
287, 2.10000000, 0.20000000, 0.0
288, 2.15000000, 0.20000000, 0.0
289, 2.20000000, 0.20000000, 0.0
290, 2.25000000, 0.20000000, 0.0
291, 2.30000000, 0.20000000, 0.0
292, 2.35000000, 0.20000000, 0.0
293, 2.40000000, 0.20000000, 0.0
294, 2.45000000, 0.20000000, 0.0
295, 2.50000000, 0.20000000, 0.0
296, 2.55000000, 0.20000000, 0.0
297, 2.60000000, 0.20000000, 0.0
298, 2.65000000, 0.20000000, 0.0
299, 2.70000000, 0.20000000, 0.0
300, 2.75000000, 0.20000000, 0.0
301, 2.80000000, 0.20000000, 0.0
302, 2.85000000, 0.20000000, 0.0
303, 2.90000000, 0.20000000, 0.0
304, 2.95000000, 0.20000000, 0.0
305, 3.00000000, 0.20000000, 0.0
306, 3.05000000, 0.20000000, 0.0
307, 3.10000000, 0.20000000, 0.0
308, 3.15000000, 0.20000000, 0.0
309, 3.20000000, 0.20000000, 0.0
310, 3.25000000, 0.20000000, 0.0
311, 3.30000000, 0.20000000, 0.0
312, 3.35000000, 0.20000000, 0.0
313, 3.40000000, 0.20000000, 0.0
314, 3.45000000, 0.20000000, 0.0
315, 3.50000000, 0.20000000, 0.0
316, 3.55000000, 0.20000000, 0.0
317, 3.60000000, 0.20000000, 0.0
318, 3.65000000, 0.20000000, 0.0
319, 3.70000000, 0.20000000, 0.0
320, 3.75000000, 0.20000000, 0.0
321, 3.80000000, 0.20000000, 0.0
322, 3.85000000, 0.20000000, 0.0
323, 3.90000000, 0.20000000, 0.0
324, 3.95000000, 0.20000000, 0.0
325, 4.00000000, 0.20000000, 0.0
326, 0.00000000, 0.25000000, 0.0
327, 0.10000000, 0.25000000, 0.0
328, 0.20000000, 0.25000000, 0.0
329, 0.30000000, 0.25000000, 0.0
330, 0.40000000, 0.25000000, 0.0
331, 0.50000000, 0.25000000, 0.0
332, 0.60000000, 0.25000000, 0.0
333, 0.70000000, 0.25000000, 0.0
334, 0.80000000, 0.25000000, 0.0
335, 0.90000000, 0.25000000, 0.0
336, 1.00000000, 0.25000000, 0.0
337, 1.10000000, 0.25000000, 0.0
338, 1.20000000, 0.25000000, 0.0
339, 1.30000000, 0.25000000, 0.0
340, 1.40000000, 0.25000000, 0.0
341, 1.50000000, 0.25000000, 0.0
342, 1.60000000, 0.25000000, 0.0
343, 1.70000000, 0.25000000, 0.0
344, 1.80000000, 0.25000000, 0.0
345, 1.90000000, 0.25000000, 0.0
346, 2.00000000, 0.25000000, 0.0
347, 2.10000000, 0.25000000, 0.0
348, 2.20000000, 0.25000000, 0.0
349, 2.30000000, 0.25000000, 0.0
350, 2.40000000, 0.25000000, 0.0
351, 2.50000000, 0.25000000, 0.0
352, 2.60000000, 0.25000000, 0.0
353, 2.70000000, 0.25000000, 0.0
354, 2.80000000, 0.25000000, 0.0
355, 2.90000000, 0.25000000, 0.0
356, 3.00000000, 0.25000000, 0.0
357, 3.10000000, 0.25000000, 0.0
358, 3.20000000, 0.25000000, 0.0
359, 3.30000000, 0.25000000, 0.0
360, 3.40000000, 0.25000000, 0.0
361, 3.50000000, 0.25000000, 0.0
362, 3.60000000, 0.25000000, 0.0
363, 3.70000000, 0.25000000, 0.0
364, 3.80000000, 0.25000000, 0.0
365, 3.90000000, 0.25000000, 0.0
366, 4.00000000, 0.25000000, 0.0
367, 0.00000000, 0.30000000, 0.0
368, 0.05000000, 0.30000000, 0.0
369, 0.10000000, 0.30000000, 0.0
370, 0.15000000, 0.30000000, 0.0
371, 0.20000000, 0.30000000, 0.0
372, 0.25000000, 0.30000000, 0.0
373, 0.30000000, 0.30000000, 0.0
374, 0.35000000, 0.30000000, 0.0
375, 0.40000000, 0.30000000, 0.0
376, 0.45000000, 0.30000000, 0.0
377, 0.50000000, 0.30000000, 0.0
378, 0.55000000, 0.30000000, 0.0
379, 0.60000000, 0.30000000, 0.0
380, 0.65000000, 0.30000000, 0.0
381, 0.70000000, 0.30000000, 0.0
382, 0.75000000, 0.30000000, 0.0
383, 0.80000000, 0.30000000, 0.0
384, 0.85000000, 0.30000000, 0.0
385, 0.90000000, 0.30000000, 0.0
386, 0.95000000, 0.30000000, 0.0
387, 1.00000000, 0.30000000, 0.0
388, 1.05000000, 0.30000000, 0.0
389, 1.10000000, 0.30000000, 0.0
390, 1.15000000, 0.30000000, 0.0
391, 1.20000000, 0.30000000, 0.0
392, 1.25000000, 0.30000000, 0.0
393, 1.30000000, 0.30000000, 0.0
394, 1.35000000, 0.30000000, 0.0
395, 1.40000000, 0.30000000, 0.0
396, 1.45000000, 0.30000000, 0.0
397, 1.50000000, 0.30000000, 0.0
398, 1.55000000, 0.30000000, 0.0
399, 1.60000000, 0.30000000, 0.0
400, 1.65000000, 0.30000000, 0.0
401, 1.70000000, 0.30000000, 0.0
402, 1.75000000, 0.30000000, 0.0
403, 1.80000000, 0.30000000, 0.0
404, 1.85000000, 0.30000000, 0.0
405, 1.90000000, 0.30000000, 0.0
406, 1.95000000, 0.30000000, 0.0
407, 2.00000000, 0.30000000, 0.0
408, 2.05000000, 0.30000000, 0.0
409, 2.10000000, 0.30000000, 0.0
410, 2.15000000, 0.30000000, 0.0
411, 2.20000000, 0.30000000, 0.0
412, 2.25000000, 0.30000000, 0.0
413, 2.30000000, 0.30000000, 0.0
414, 2.35000000, 0.30000000, 0.0
415, 2.40000000, 0.30000000, 0.0
416, 2.45000000, 0.30000000, 0.0
417, 2.50000000, 0.30000000, 0.0
418, 2.55000000, 0.30000000, 0.0
419, 2.60000000, 0.30000000, 0.0
420, 2.65000000, 0.30000000, 0.0
421, 2.70000000, 0.30000000, 0.0
422, 2.75000000, 0.30000000, 0.0
423, 2.80000000, 0.30000000, 0.0
424, 2.85000000, 0.30000000, 0.0
425, 2.90000000, 0.30000000, 0.0
426, 2.95000000, 0.30000000, 0.0
427, 3.00000000, 0.30000000, 0.0
428, 3.05000000, 0.30000000, 0.0
429, 3.10000000, 0.30000000, 0.0
430, 3.15000000, 0.30000000, 0.0
431, 3.20000000, 0.30000000, 0.0
432, 3.25000000, 0.30000000, 0.0
433, 3.30000000, 0.30000000, 0.0
434, 3.35000000, 0.30000000, 0.0
435, 3.40000000, 0.30000000, 0.0
436, 3.45000000, 0.30000000, 0.0
437, 3.50000000, 0.30000000, 0.0
438, 3.55000000, 0.30000000, 0.0
439, 3.60000000, 0.30000000, 0.0
440, 3.65000000, 0.30000000, 0.0
441, 3.70000000, 0.30000000, 0.0
442, 3.75000000, 0.30000000, 0.0
443, 3.80000000, 0.30000000, 0.0
444, 3.85000000, 0.30000000, 0.0
445, 3.90000000, 0.30000000, 0.0
446, 3.95000000, 0.30000000, 0.0
447, 4.00000000, 0.30000000, 0.0
448, 0.00000000, 0.35000000, 0.0
449, 0.10000000, 0.35000000, 0.0
450, 0.20000000, 0.35000000, 0.0
451, 0.30000000, 0.35000000, 0.0
452, 0.40000000, 0.35000000, 0.0
453, 0.50000000, 0.35000000, 0.0
454, 0.60000000, 0.35000000, 0.0
455, 0.70000000, 0.35000000, 0.0
456, 0.80000000, 0.35000000, 0.0
457, 0.90000000, 0.35000000, 0.0
458, 1.00000000, 0.35000000, 0.0
459, 1.10000000, 0.35000000, 0.0
460, 1.20000000, 0.35000000, 0.0
461, 1.30000000, 0.35000000, 0.0
462, 1.40000000, 0.35000000, 0.0
463, 1.50000000, 0.35000000, 0.0
464, 1.60000000, 0.35000000, 0.0
465, 1.70000000, 0.35000000, 0.0
466, 1.80000000, 0.35000000, 0.0
467, 1.90000000, 0.35000000, 0.0
468, 2.00000000, 0.35000000, 0.0
469, 2.10000000, 0.35000000, 0.0
470, 2.20000000, 0.35000000, 0.0
471, 2.30000000, 0.35000000, 0.0
472, 2.40000000, 0.35000000, 0.0
473, 2.50000000, 0.35000000, 0.0
474, 2.60000000, 0.35000000, 0.0
475, 2.70000000, 0.35000000, 0.0
476, 2.80000000, 0.35000000, 0.0
477, 2.90000000, 0.35000000, 0.0
478, 3.00000000, 0.35000000, 0.0
479, 3.10000000, 0.35000000, 0.0
480, 3.20000000, 0.35000000, 0.0
481, 3.30000000, 0.35000000, 0.0
482, 3.40000000, 0.35000000, 0.0
483, 3.50000000, 0.35000000, 0.0
484, 3.60000000, 0.35000000, 0.0
485, 3.70000000, 0.35000000, 0.0
486, 3.80000000, 0.35000000, 0.0
487, 3.90000000, 0.35000000, 0.0
488, 4.00000000, 0.35000000, 0.0
489, 0.00000000, 0.40000000, 0.0
490, 0.05000000, 0.40000000, 0.0
491, 0.10000000, 0.40000000, 0.0
492, 0.15000000, 0.40000000, 0.0
493, 0.20000000, 0.40000000, 0.0
494, 0.25000000, 0.40000000, 0.0
495, 0.30000000, 0.40000000, 0.0
496, 0.35000000, 0.40000000, 0.0
497, 0.40000000, 0.40000000, 0.0
498, 0.45000000, 0.40000000, 0.0
499, 0.50000000, 0.40000000, 0.0
500, 0.55000000, 0.40000000, 0.0
501, 0.60000000, 0.40000000, 0.0
502, 0.65000000, 0.40000000, 0.0
503, 0.70000000, 0.40000000, 0.0
504, 0.75000000, 0.40000000, 0.0
505, 0.80000000, 0.40000000, 0.0
506, 0.85000000, 0.40000000, 0.0
507, 0.90000000, 0.40000000, 0.0
508, 0.95000000, 0.40000000, 0.0
509, 1.00000000, 0.40000000, 0.0
510, 1.05000000, 0.40000000, 0.0
511, 1.10000000, 0.40000000, 0.0
512, 1.15000000, 0.40000000, 0.0
513, 1.20000000, 0.40000000, 0.0
514, 1.25000000, 0.40000000, 0.0
515, 1.30000000, 0.40000000, 0.0
516, 1.35000000, 0.40000000, 0.0
517, 1.40000000, 0.40000000, 0.0
518, 1.45000000, 0.40000000, 0.0
519, 1.50000000, 0.40000000, 0.0
520, 1.55000000, 0.40000000, 0.0
521, 1.60000000, 0.40000000, 0.0
522, 1.65000000, 0.40000000, 0.0
523, 1.70000000, 0.40000000, 0.0
524, 1.75000000, 0.40000000, 0.0
525, 1.80000000, 0.40000000, 0.0
526, 1.85000000, 0.40000000, 0.0
527, 1.90000000, 0.40000000, 0.0
528, 1.95000000, 0.40000000, 0.0
529, 2.00000000, 0.40000000, 0.0
530, 2.05000000, 0.40000000, 0.0
531, 2.10000000, 0.40000000, 0.0
532, 2.15000000, 0.40000000, 0.0
533, 2.20000000, 0.40000000, 0.0
534, 2.25000000, 0.40000000, 0.0
535, 2.30000000, 0.40000000, 0.0
536, 2.35000000, 0.40000000, 0.0
537, 2.40000000, 0.40000000, 0.0
538, 2.45000000, 0.40000000, 0.0
539, 2.50000000, 0.40000000, 0.0
540, 2.55000000, 0.40000000, 0.0
541, 2.60000000, 0.40000000, 0.0
542, 2.65000000, 0.40000000, 0.0
543, 2.70000000, 0.40000000, 0.0
544, 2.75000000, 0.40000000, 0.0
545, 2.80000000, 0.40000000, 0.0
546, 2.85000000, 0.40000000, 0.0
547, 2.90000000, 0.40000000, 0.0
548, 2.95000000, 0.40000000, 0.0
549, 3.00000000, 0.40000000, 0.0
550, 3.05000000, 0.40000000, 0.0
551, 3.10000000, 0.40000000, 0.0
552, 3.15000000, 0.40000000, 0.0
553, 3.20000000, 0.40000000, 0.0
554, 3.25000000, 0.40000000, 0.0
555, 3.30000000, 0.40000000, 0.0
556, 3.35000000, 0.40000000, 0.0
557, 3.40000000, 0.40000000, 0.0
558, 3.45000000, 0.40000000, 0.0
559, 3.50000000, 0.40000000, 0.0
560, 3.55000000, 0.40000000, 0.0
561, 3.60000000, 0.40000000, 0.0
562, 3.65000000, 0.40000000, 0.0
563, 3.70000000, 0.40000000, 0.0
564, 3.75000000, 0.40000000, 0.0
565, 3.80000000, 0.40000000, 0.0
566, 3.85000000, 0.40000000, 0.0
567, 3.90000000, 0.40000000, 0.0
568, 3.95000000, 0.40000000, 0.0
569, 4.00000000, 0.40000000, 0.0
*ELEMENT, TYPE=S8R, ELSET=EALL
1, 1, 3, 125, 123, 2, 83, 124, 82
2, 3, 5, 127, 125, 4, 84, 126, 83
3, 5, 7, 129, 127, 6, 85, 128, 84
4, 7, 9, 131, 129, 8, 86, 130, 85
5, 9, 11, 133, 131, 10, 87, 132, 86
6, 11, 13, 135, 133, 12, 88, 134, 87
7, 13, 15, 137, 135, 14, 89, 136, 88
8, 15, 17, 139, 137, 16, 90, 138, 89
9, 17, 19, 141, 139, 18, 91, 140, 90
10, 19, 21, 143, 141, 20, 92, 142, 91
11, 21, 23, 145, 143, 22, 93, 144, 92
12, 23, 25, 147, 145, 24, 94, 146, 93
13, 25, 27, 149, 147, 26, 95, 148, 94
14, 27, 29, 151, 149, 28, 96, 150, 95
15, 29, 31, 153, 151, 30, 97, 152, 96
16, 31, 33, 155, 153, 32, 98, 154, 97
17, 33, 35, 157, 155, 34, 99, 156, 98
18, 35, 37, 159, 157, 36, 100, 158, 99
19, 37, 39, 161, 159, 38, 101, 160, 100
20, 39, 41, 163, 161, 40, 102, 162, 101
21, 41, 43, 165, 163, 42, 103, 164, 102
22, 43, 45, 167, 165, 44, 104, 166, 103
23, 45, 47, 169, 167, 46, 105, 168, 104
24, 47, 49, 171, 169, 48, 106, 170, 105
25, 49, 51, 173, 171, 50, 107, 172, 106
26, 51, 53, 175, 173, 52, 108, 174, 107
27, 53, 55, 177, 175, 54, 109, 176, 108
28, 55, 57, 179, 177, 56, 110, 178, 109
29, 57, 59, 181, 179, 58, 111, 180, 110
30, 59, 61, 183, 181, 60, 112, 182, 111
31, 61, 63, 185, 183, 62, 113, 184, 112
32, 63, 65, 187, 185, 64, 114, 186, 113
33, 65, 67, 189, 187, 66, 115, 188, 114
34, 67, 69, 191, 189, 68, 116, 190, 115
35, 69, 71, 193, 191, 70, 117, 192, 116
36, 71, 73, 195, 193, 72, 118, 194, 117
37, 73, 75, 197, 195, 74, 119, 196, 118
38, 75, 77, 199, 197, 76, 120, 198, 119
39, 77, 79, 201, 199, 78, 121, 200, 120
40, 79, 81, 203, 201, 80, 122, 202, 121
41, 123, 125, 247, 245, 124, 205, 246, 204
42, 125, 127, 249, 247, 126, 206, 248, 205
43, 127, 129, 251, 249, 128, 207, 250, 206
44, 129, 131, 253, 251, 130, 208, 252, 207
45, 131, 133, 255, 253, 132, 209, 254, 208
46, 133, 135, 257, 255, 134, 210, 256, 209
47, 135, 137, 259, 257, 136, 211, 258, 210
48, 137, 139, 261, 259, 138, 212, 260, 211
49, 139, 141, 263, 261, 140, 213, 262, 212
50, 141, 143, 265, 263, 142, 214, 264, 213
51, 143, 145, 267, 265, 144, 215, 266, 214
52, 145, 147, 269, 267, 146, 216, 268, 215
53, 147, 149, 271, 269, 148, 217, 270, 216
54, 149, 151, 273, 271, 150, 218, 272, 217
55, 151, 153, 275, 273, 152, 219, 274, 218
56, 153, 155, 277, 275, 154, 220, 276, 219
57, 155, 157, 279, 277, 156, 221, 278, 220
58, 157, 159, 281, 279, 158, 222, 280, 221
59, 159, 161, 283, 281, 160, 223, 282, 222
60, 161, 163, 285, 283, 162, 224, 284, 223
61, 163, 165, 287, 285, 164, 225, 286, 224
62, 165, 167, 289, 287, 166, 226, 288, 225
63, 167, 169, 291, 289, 168, 227, 290, 226
64, 169, 171, 293, 291, 170, 228, 292, 227
65, 171, 173, 295, 293, 172, 229, 294, 228
66, 173, 175, 297, 295, 174, 230, 296, 229
67, 175, 177, 299, 297, 176, 231, 298, 230
68, 177, 179, 301, 299, 178, 232, 300, 231
69, 179, 181, 303, 301, 180, 233, 302, 232
70, 181, 183, 305, 303, 182, 234, 304, 233
71, 183, 185, 307, 305, 184, 235, 306, 234
72, 185, 187, 309, 307, 186, 236, 308, 235
73, 187, 189, 311, 309, 188, 237, 310, 236
74, 189, 191, 313, 311, 190, 238, 312, 237
75, 191, 193, 315, 313, 192, 239, 314, 238
76, 193, 195, 317, 315, 194, 240, 316, 239
77, 195, 197, 319, 317, 196, 241, 318, 240
78, 197, 199, 321, 319, 198, 242, 320, 241
79, 199, 201, 323, 321, 200, 243, 322, 242
80, 201, 203, 325, 323, 202, 244, 324, 243
81, 245, 247, 369, 367, 246, 327, 368, 326
82, 247, 249, 371, 369, 248, 328, 370, 327
83, 249, 251, 373, 371, 250, 329, 372, 328
84, 251, 253, 375, 373, 252, 330, 374, 329
85, 253, 255, 377, 375, 254, 331, 376, 330
86, 255, 257, 379, 377, 256, 332, 378, 331
87, 257, 259, 381, 379, 258, 333, 380, 332
88, 259, 261, 383, 381, 260, 334, 382, 333
89, 261, 263, 385, 383, 262, 335, 384, 334
90, 263, 265, 387, 385, 264, 336, 386, 335
91, 265, 267, 389, 387, 266, 337, 388, 336
92, 267, 269, 391, 389, 268, 338, 390, 337
93, 269, 271, 393, 391, 270, 339, 392, 338
94, 271, 273, 395, 393, 272, 340, 394, 339
95, 273, 275, 397, 395, 274, 341, 396, 340
96, 275, 277, 399, 397, 276, 342, 398, 341
97, 277, 279, 401, 399, 278, 343, 400, 342
98, 279, 281, 403, 401, 280, 344, 402, 343
99, 281, 283, 405, 403, 282, 345, 404, 344
100, 283, 285, 407, 405, 284, 346, 406, 345
101, 285, 287, 409, 407, 286, 347, 408, 346
102, 287, 289, 411, 409, 288, 348, 410, 347
103, 289, 291, 413, 411, 290, 349, 412, 348
104, 291, 293, 415, 413, 292, 350, 414, 349
105, 293, 295, 417, 415, 294, 351, 416, 350
106, 295, 297, 419, 417, 296, 352, 418, 351
107, 297, 299, 421, 419, 298, 353, 420, 352
108, 299, 301, 423, 421, 300, 354, 422, 353
109, 301, 303, 425, 423, 302, 355, 424, 354
110, 303, 305, 427, 425, 304, 356, 426, 355
111, 305, 307, 429, 427, 306, 357, 428, 356
112, 307, 309, 431, 429, 308, 358, 430, 357
113, 309, 311, 433, 431, 310, 359, 432, 358
114, 311, 313, 435, 433, 312, 360, 434, 359
115, 313, 315, 437, 435, 314, 361, 436, 360
116, 315, 317, 439, 437, 316, 362, 438, 361
117, 317, 319, 441, 439, 318, 363, 440, 362
118, 319, 321, 443, 441, 320, 364, 442, 363
119, 321, 323, 445, 443, 322, 365, 444, 364
120, 323, 325, 447, 445, 324, 366, 446, 365
121, 367, 369, 491, 489, 368, 449, 490, 448
122, 369, 371, 493, 491, 370, 450, 492, 449
123, 371, 373, 495, 493, 372, 451, 494, 450
124, 373, 375, 497, 495, 374, 452, 496, 451
125, 375, 377, 499, 497, 376, 453, 498, 452
126, 377, 379, 501, 499, 378, 454, 500, 453
127, 379, 381, 503, 501, 380, 455, 502, 454
128, 381, 383, 505, 503, 382, 456, 504, 455
129, 383, 385, 507, 505, 384, 457, 506, 456
130, 385, 387, 509, 507, 386, 458, 508, 457
131, 387, 389, 511, 509, 388, 459, 510, 458
132, 389, 391, 513, 511, 390, 460, 512, 459
133, 391, 393, 515, 513, 392, 461, 514, 460
134, 393, 395, 517, 515, 394, 462, 516, 461
135, 395, 397, 519, 517, 396, 463, 518, 462
136, 397, 399, 521, 519, 398, 464, 520, 463
137, 399, 401, 523, 521, 400, 465, 522, 464
138, 401, 403, 525, 523, 402, 466, 524, 465
139, 403, 405, 527, 525, 404, 467, 526, 466
140, 405, 407, 529, 527, 406, 468, 528, 467
141, 407, 409, 531, 529, 408, 469, 530, 468
142, 409, 411, 533, 531, 410, 470, 532, 469
143, 411, 413, 535, 533, 412, 471, 534, 470
144, 413, 415, 537, 535, 414, 472, 536, 471
145, 415, 417, 539, 537, 416, 473, 538, 472
146, 417, 419, 541, 539, 418, 474, 540, 473
147, 419, 421, 543, 541, 420, 475, 542, 474
148, 421, 423, 545, 543, 422, 476, 544, 475
149, 423, 425, 547, 545, 424, 477, 546, 476
150, 425, 427, 549, 547, 426, 478, 548, 477
151, 427, 429, 551, 549, 428, 479, 550, 478
152, 429, 431, 553, 551, 430, 480, 552, 479
153, 431, 433, 555, 553, 432, 481, 554, 480
154, 433, 435, 557, 555, 434, 482, 556, 481
155, 435, 437, 559, 557, 436, 483, 558, 482
156, 437, 439, 561, 559, 438, 484, 560, 483
157, 439, 441, 563, 561, 440, 485, 562, 484
158, 441, 443, 565, 563, 442, 486, 564, 485
159, 443, 445, 567, 565, 444, 487, 566, 486
160, 445, 447, 569, 567, 446, 488, 568, 487
*NSET, NSET=X0
1, 82, 123, 204, 245, 326, 367, 448, 489
*NSET, NSET=XA
81, 122, 203, 244, 325, 366, 447, 488, 569
*NSET, NSET=NALL, GENERATE
1, 569, 1
*SHELL GENERAL SECTION, ELSET=EALL, DENSITY=1
2.197819e+07, 1.723371e+06, 1.141486e+06, -3.771186e-10, 9.712472e-13, 1.972744e+06, 1.314696e-10, 3.284513e-12
-1.389597e+06, 1.831516e+06, 3.284513e-12, -8.848014e-12, -1.141627e+05, 1.436142e+05, 9.512386e+04, -1.389597e+06
-1.141627e+05, 1.921711e-11, 6.242425e-12, 4.038804e-12, 1.643954e+05
*TRANSVERSE SHEAR STIFFNESS
3.988921e+05, 1.597801e+05, -5.115322e-11
** CYLINDRICAL BENDING: SS at x = 0 and x = a (w = 0), one axial
** anchor (u = 0 at x = 0), and PLANE STRAIN on every node:
** v = 0 (dof 2), UR1 = 0 (dof 4, twist about x), drilling fixed.
*BOUNDARY
X0, 3, 3
XA, 3, 3
X0, 1, 1
NALL, 2, 2
NALL, 4, 4
NALL, 6, 6
*STEP, NAME=STATIC
*STATIC
1.0, 1.0
*DLOAD
1, P, 3.925982e-02
2, P, 1.175374e-01
3, P, 1.950903e-01
4, P, 2.714404e-01
5, P, 3.461171e-01
6, P, 4.186597e-01
7, P, 4.886212e-01
8, P, 5.555702e-01
9, P, 6.190939e-01
10, P, 6.788007e-01
11, P, 7.343225e-01
12, P, 7.853169e-01
13, P, 8.314696e-01
14, P, 8.724960e-01
15, P, 9.081432e-01
16, P, 9.381913e-01
17, P, 9.624552e-01
18, P, 9.807853e-01
19, P, 9.930685e-01
20, P, 9.992290e-01
21, P, 9.992290e-01
22, P, 9.930685e-01
23, P, 9.807853e-01
24, P, 9.624552e-01
25, P, 9.381913e-01
26, P, 9.081432e-01
27, P, 8.724960e-01
28, P, 8.314696e-01
29, P, 7.853169e-01
30, P, 7.343225e-01
31, P, 6.788007e-01
32, P, 6.190939e-01
33, P, 5.555702e-01
34, P, 4.886212e-01
35, P, 4.186597e-01
36, P, 3.461171e-01
37, P, 2.714404e-01
38, P, 1.950903e-01
39, P, 1.175374e-01
40, P, 3.925982e-02
41, P, 3.925982e-02
42, P, 1.175374e-01
43, P, 1.950903e-01
44, P, 2.714404e-01
45, P, 3.461171e-01
46, P, 4.186597e-01
47, P, 4.886212e-01
48, P, 5.555702e-01
49, P, 6.190939e-01
50, P, 6.788007e-01
51, P, 7.343225e-01
52, P, 7.853169e-01
53, P, 8.314696e-01
54, P, 8.724960e-01
55, P, 9.081432e-01
56, P, 9.381913e-01
57, P, 9.624552e-01
58, P, 9.807853e-01
59, P, 9.930685e-01
60, P, 9.992290e-01
61, P, 9.992290e-01
62, P, 9.930685e-01
63, P, 9.807853e-01
64, P, 9.624552e-01
65, P, 9.381913e-01
66, P, 9.081432e-01
67, P, 8.724960e-01
68, P, 8.314696e-01
69, P, 7.853169e-01
70, P, 7.343225e-01
71, P, 6.788007e-01
72, P, 6.190939e-01
73, P, 5.555702e-01
74, P, 4.886212e-01
75, P, 4.186597e-01
76, P, 3.461171e-01
77, P, 2.714404e-01
78, P, 1.950903e-01
79, P, 1.175374e-01
80, P, 3.925982e-02
81, P, 3.925982e-02
82, P, 1.175374e-01
83, P, 1.950903e-01
84, P, 2.714404e-01
85, P, 3.461171e-01
86, P, 4.186597e-01
87, P, 4.886212e-01
88, P, 5.555702e-01
89, P, 6.190939e-01
90, P, 6.788007e-01
91, P, 7.343225e-01
92, P, 7.853169e-01
93, P, 8.314696e-01
94, P, 8.724960e-01
95, P, 9.081432e-01
96, P, 9.381913e-01
97, P, 9.624552e-01
98, P, 9.807853e-01
99, P, 9.930685e-01
100, P, 9.992290e-01
101, P, 9.992290e-01
102, P, 9.930685e-01
103, P, 9.807853e-01
104, P, 9.624552e-01
105, P, 9.381913e-01
106, P, 9.081432e-01
107, P, 8.724960e-01
108, P, 8.314696e-01
109, P, 7.853169e-01
110, P, 7.343225e-01
111, P, 6.788007e-01
112, P, 6.190939e-01
113, P, 5.555702e-01
114, P, 4.886212e-01
115, P, 4.186597e-01
116, P, 3.461171e-01
117, P, 2.714404e-01
118, P, 1.950903e-01
119, P, 1.175374e-01
120, P, 3.925982e-02
121, P, 3.925982e-02
122, P, 1.175374e-01
123, P, 1.950903e-01
124, P, 2.714404e-01
125, P, 3.461171e-01
126, P, 4.186597e-01
127, P, 4.886212e-01
128, P, 5.555702e-01
129, P, 6.190939e-01
130, P, 6.788007e-01
131, P, 7.343225e-01
132, P, 7.853169e-01
133, P, 8.314696e-01
134, P, 8.724960e-01
135, P, 9.081432e-01
136, P, 9.381913e-01
137, P, 9.624552e-01
138, P, 9.807853e-01
139, P, 9.930685e-01
140, P, 9.992290e-01
141, P, 9.992290e-01
142, P, 9.930685e-01
143, P, 9.807853e-01
144, P, 9.624552e-01
145, P, 9.381913e-01
146, P, 9.081432e-01
147, P, 8.724960e-01
148, P, 8.314696e-01
149, P, 7.853169e-01
150, P, 7.343225e-01
151, P, 6.788007e-01
152, P, 6.190939e-01
153, P, 5.555702e-01
154, P, 4.886212e-01
155, P, 4.186597e-01
156, P, 3.461171e-01
157, P, 2.714404e-01
158, P, 1.950903e-01
159, P, 1.175374e-01
160, P, 3.925982e-02
*NODE PRINT, NSET=NALL, FREQUENCY=1
U
*EL PRINT, ELSET=EALL, FREQUENCY=1
SF, SM
*EL PRINT, ELSET=EALL, FREQUENCY=1
COORD
*END STEP
