*Heading
** AR5 ABDG8F equivalent plate of preovios_try.out -- 25 x 25 S8R (5 per cell, cross-check twin), clamped all round, LINEAR
** reference surface = the SG mid-plane, z = 0
** results -> abaqus/AR5_S8R/ (NOT AR5/: build_ff's ABDG* glob would pick these up)
*Preprint, echo=NO, model=NO, history=NO, contact=NO
*Node
1, 0.000000, 0.000000, 0.
2, 0.100000, 0.000000, 0.
3, 0.200000, 0.000000, 0.
4, 0.300000, 0.000000, 0.
5, 0.400000, 0.000000, 0.
6, 0.500000, 0.000000, 0.
7, 0.600000, 0.000000, 0.
8, 0.700000, 0.000000, 0.
9, 0.800000, 0.000000, 0.
10, 0.900000, 0.000000, 0.
11, 1.000000, 0.000000, 0.
12, 1.100000, 0.000000, 0.
13, 1.200000, 0.000000, 0.
14, 1.300000, 0.000000, 0.
15, 1.400000, 0.000000, 0.
16, 1.500000, 0.000000, 0.
17, 1.600000, 0.000000, 0.
18, 1.700000, 0.000000, 0.
19, 1.800000, 0.000000, 0.
20, 1.900000, 0.000000, 0.
21, 2.000000, 0.000000, 0.
22, 2.100000, 0.000000, 0.
23, 2.200000, 0.000000, 0.
24, 2.300000, 0.000000, 0.
25, 2.400000, 0.000000, 0.
26, 2.500000, 0.000000, 0.
27, 2.600000, 0.000000, 0.
28, 2.700000, 0.000000, 0.
29, 2.800000, 0.000000, 0.
30, 2.900000, 0.000000, 0.
31, 3.000000, 0.000000, 0.
32, 3.100000, 0.000000, 0.
33, 3.200000, 0.000000, 0.
34, 3.300000, 0.000000, 0.
35, 3.400000, 0.000000, 0.
36, 3.500000, 0.000000, 0.
37, 3.600000, 0.000000, 0.
38, 3.700000, 0.000000, 0.
39, 3.800000, 0.000000, 0.
40, 3.900000, 0.000000, 0.
41, 4.000000, 0.000000, 0.
42, 4.100000, 0.000000, 0.
43, 4.200000, 0.000000, 0.
44, 4.300000, 0.000000, 0.
45, 4.400000, 0.000000, 0.
46, 4.500000, 0.000000, 0.
47, 4.600000, 0.000000, 0.
48, 4.700000, 0.000000, 0.
49, 4.800000, 0.000000, 0.
50, 4.900000, 0.000000, 0.
51, 5.000000, 0.000000, 0.
52, 0.000000, 0.100000, 0.
53, 0.200000, 0.100000, 0.
54, 0.400000, 0.100000, 0.
55, 0.600000, 0.100000, 0.
56, 0.800000, 0.100000, 0.
57, 1.000000, 0.100000, 0.
58, 1.200000, 0.100000, 0.
59, 1.400000, 0.100000, 0.
60, 1.600000, 0.100000, 0.
61, 1.800000, 0.100000, 0.
62, 2.000000, 0.100000, 0.
63, 2.200000, 0.100000, 0.
64, 2.400000, 0.100000, 0.
65, 2.600000, 0.100000, 0.
66, 2.800000, 0.100000, 0.
67, 3.000000, 0.100000, 0.
68, 3.200000, 0.100000, 0.
69, 3.400000, 0.100000, 0.
70, 3.600000, 0.100000, 0.
71, 3.800000, 0.100000, 0.
72, 4.000000, 0.100000, 0.
73, 4.200000, 0.100000, 0.
74, 4.400000, 0.100000, 0.
75, 4.600000, 0.100000, 0.
76, 4.800000, 0.100000, 0.
77, 5.000000, 0.100000, 0.
78, 0.000000, 0.200000, 0.
79, 0.100000, 0.200000, 0.
80, 0.200000, 0.200000, 0.
81, 0.300000, 0.200000, 0.
82, 0.400000, 0.200000, 0.
83, 0.500000, 0.200000, 0.
84, 0.600000, 0.200000, 0.
85, 0.700000, 0.200000, 0.
86, 0.800000, 0.200000, 0.
87, 0.900000, 0.200000, 0.
88, 1.000000, 0.200000, 0.
89, 1.100000, 0.200000, 0.
90, 1.200000, 0.200000, 0.
91, 1.300000, 0.200000, 0.
92, 1.400000, 0.200000, 0.
93, 1.500000, 0.200000, 0.
94, 1.600000, 0.200000, 0.
95, 1.700000, 0.200000, 0.
96, 1.800000, 0.200000, 0.
97, 1.900000, 0.200000, 0.
98, 2.000000, 0.200000, 0.
99, 2.100000, 0.200000, 0.
100, 2.200000, 0.200000, 0.
101, 2.300000, 0.200000, 0.
102, 2.400000, 0.200000, 0.
103, 2.500000, 0.200000, 0.
104, 2.600000, 0.200000, 0.
105, 2.700000, 0.200000, 0.
106, 2.800000, 0.200000, 0.
107, 2.900000, 0.200000, 0.
108, 3.000000, 0.200000, 0.
109, 3.100000, 0.200000, 0.
110, 3.200000, 0.200000, 0.
111, 3.300000, 0.200000, 0.
112, 3.400000, 0.200000, 0.
113, 3.500000, 0.200000, 0.
114, 3.600000, 0.200000, 0.
115, 3.700000, 0.200000, 0.
116, 3.800000, 0.200000, 0.
117, 3.900000, 0.200000, 0.
118, 4.000000, 0.200000, 0.
119, 4.100000, 0.200000, 0.
120, 4.200000, 0.200000, 0.
121, 4.300000, 0.200000, 0.
122, 4.400000, 0.200000, 0.
123, 4.500000, 0.200000, 0.
124, 4.600000, 0.200000, 0.
125, 4.700000, 0.200000, 0.
126, 4.800000, 0.200000, 0.
127, 4.900000, 0.200000, 0.
128, 5.000000, 0.200000, 0.
129, 0.000000, 0.300000, 0.
130, 0.200000, 0.300000, 0.
131, 0.400000, 0.300000, 0.
132, 0.600000, 0.300000, 0.
133, 0.800000, 0.300000, 0.
134, 1.000000, 0.300000, 0.
135, 1.200000, 0.300000, 0.
136, 1.400000, 0.300000, 0.
137, 1.600000, 0.300000, 0.
138, 1.800000, 0.300000, 0.
139, 2.000000, 0.300000, 0.
140, 2.200000, 0.300000, 0.
141, 2.400000, 0.300000, 0.
142, 2.600000, 0.300000, 0.
143, 2.800000, 0.300000, 0.
144, 3.000000, 0.300000, 0.
145, 3.200000, 0.300000, 0.
146, 3.400000, 0.300000, 0.
147, 3.600000, 0.300000, 0.
148, 3.800000, 0.300000, 0.
149, 4.000000, 0.300000, 0.
150, 4.200000, 0.300000, 0.
151, 4.400000, 0.300000, 0.
152, 4.600000, 0.300000, 0.
153, 4.800000, 0.300000, 0.
154, 5.000000, 0.300000, 0.
155, 0.000000, 0.400000, 0.
156, 0.100000, 0.400000, 0.
157, 0.200000, 0.400000, 0.
158, 0.300000, 0.400000, 0.
159, 0.400000, 0.400000, 0.
160, 0.500000, 0.400000, 0.
161, 0.600000, 0.400000, 0.
162, 0.700000, 0.400000, 0.
163, 0.800000, 0.400000, 0.
164, 0.900000, 0.400000, 0.
165, 1.000000, 0.400000, 0.
166, 1.100000, 0.400000, 0.
167, 1.200000, 0.400000, 0.
168, 1.300000, 0.400000, 0.
169, 1.400000, 0.400000, 0.
170, 1.500000, 0.400000, 0.
171, 1.600000, 0.400000, 0.
172, 1.700000, 0.400000, 0.
173, 1.800000, 0.400000, 0.
174, 1.900000, 0.400000, 0.
175, 2.000000, 0.400000, 0.
176, 2.100000, 0.400000, 0.
177, 2.200000, 0.400000, 0.
178, 2.300000, 0.400000, 0.
179, 2.400000, 0.400000, 0.
180, 2.500000, 0.400000, 0.
181, 2.600000, 0.400000, 0.
182, 2.700000, 0.400000, 0.
183, 2.800000, 0.400000, 0.
184, 2.900000, 0.400000, 0.
185, 3.000000, 0.400000, 0.
186, 3.100000, 0.400000, 0.
187, 3.200000, 0.400000, 0.
188, 3.300000, 0.400000, 0.
189, 3.400000, 0.400000, 0.
190, 3.500000, 0.400000, 0.
191, 3.600000, 0.400000, 0.
192, 3.700000, 0.400000, 0.
193, 3.800000, 0.400000, 0.
194, 3.900000, 0.400000, 0.
195, 4.000000, 0.400000, 0.
196, 4.100000, 0.400000, 0.
197, 4.200000, 0.400000, 0.
198, 4.300000, 0.400000, 0.
199, 4.400000, 0.400000, 0.
200, 4.500000, 0.400000, 0.
201, 4.600000, 0.400000, 0.
202, 4.700000, 0.400000, 0.
203, 4.800000, 0.400000, 0.
204, 4.900000, 0.400000, 0.
205, 5.000000, 0.400000, 0.
206, 0.000000, 0.500000, 0.
207, 0.200000, 0.500000, 0.
208, 0.400000, 0.500000, 0.
209, 0.600000, 0.500000, 0.
210, 0.800000, 0.500000, 0.
211, 1.000000, 0.500000, 0.
212, 1.200000, 0.500000, 0.
213, 1.400000, 0.500000, 0.
214, 1.600000, 0.500000, 0.
215, 1.800000, 0.500000, 0.
216, 2.000000, 0.500000, 0.
217, 2.200000, 0.500000, 0.
218, 2.400000, 0.500000, 0.
219, 2.600000, 0.500000, 0.
220, 2.800000, 0.500000, 0.
221, 3.000000, 0.500000, 0.
222, 3.200000, 0.500000, 0.
223, 3.400000, 0.500000, 0.
224, 3.600000, 0.500000, 0.
225, 3.800000, 0.500000, 0.
226, 4.000000, 0.500000, 0.
227, 4.200000, 0.500000, 0.
228, 4.400000, 0.500000, 0.
229, 4.600000, 0.500000, 0.
230, 4.800000, 0.500000, 0.
231, 5.000000, 0.500000, 0.
232, 0.000000, 0.600000, 0.
233, 0.100000, 0.600000, 0.
234, 0.200000, 0.600000, 0.
235, 0.300000, 0.600000, 0.
236, 0.400000, 0.600000, 0.
237, 0.500000, 0.600000, 0.
238, 0.600000, 0.600000, 0.
239, 0.700000, 0.600000, 0.
240, 0.800000, 0.600000, 0.
241, 0.900000, 0.600000, 0.
242, 1.000000, 0.600000, 0.
243, 1.100000, 0.600000, 0.
244, 1.200000, 0.600000, 0.
245, 1.300000, 0.600000, 0.
246, 1.400000, 0.600000, 0.
247, 1.500000, 0.600000, 0.
248, 1.600000, 0.600000, 0.
249, 1.700000, 0.600000, 0.
250, 1.800000, 0.600000, 0.
251, 1.900000, 0.600000, 0.
252, 2.000000, 0.600000, 0.
253, 2.100000, 0.600000, 0.
254, 2.200000, 0.600000, 0.
255, 2.300000, 0.600000, 0.
256, 2.400000, 0.600000, 0.
257, 2.500000, 0.600000, 0.
258, 2.600000, 0.600000, 0.
259, 2.700000, 0.600000, 0.
260, 2.800000, 0.600000, 0.
261, 2.900000, 0.600000, 0.
262, 3.000000, 0.600000, 0.
263, 3.100000, 0.600000, 0.
264, 3.200000, 0.600000, 0.
265, 3.300000, 0.600000, 0.
266, 3.400000, 0.600000, 0.
267, 3.500000, 0.600000, 0.
268, 3.600000, 0.600000, 0.
269, 3.700000, 0.600000, 0.
270, 3.800000, 0.600000, 0.
271, 3.900000, 0.600000, 0.
272, 4.000000, 0.600000, 0.
273, 4.100000, 0.600000, 0.
274, 4.200000, 0.600000, 0.
275, 4.300000, 0.600000, 0.
276, 4.400000, 0.600000, 0.
277, 4.500000, 0.600000, 0.
278, 4.600000, 0.600000, 0.
279, 4.700000, 0.600000, 0.
280, 4.800000, 0.600000, 0.
281, 4.900000, 0.600000, 0.
282, 5.000000, 0.600000, 0.
283, 0.000000, 0.700000, 0.
284, 0.200000, 0.700000, 0.
285, 0.400000, 0.700000, 0.
286, 0.600000, 0.700000, 0.
287, 0.800000, 0.700000, 0.
288, 1.000000, 0.700000, 0.
289, 1.200000, 0.700000, 0.
290, 1.400000, 0.700000, 0.
291, 1.600000, 0.700000, 0.
292, 1.800000, 0.700000, 0.
293, 2.000000, 0.700000, 0.
294, 2.200000, 0.700000, 0.
295, 2.400000, 0.700000, 0.
296, 2.600000, 0.700000, 0.
297, 2.800000, 0.700000, 0.
298, 3.000000, 0.700000, 0.
299, 3.200000, 0.700000, 0.
300, 3.400000, 0.700000, 0.
301, 3.600000, 0.700000, 0.
302, 3.800000, 0.700000, 0.
303, 4.000000, 0.700000, 0.
304, 4.200000, 0.700000, 0.
305, 4.400000, 0.700000, 0.
306, 4.600000, 0.700000, 0.
307, 4.800000, 0.700000, 0.
308, 5.000000, 0.700000, 0.
309, 0.000000, 0.800000, 0.
310, 0.100000, 0.800000, 0.
311, 0.200000, 0.800000, 0.
312, 0.300000, 0.800000, 0.
313, 0.400000, 0.800000, 0.
314, 0.500000, 0.800000, 0.
315, 0.600000, 0.800000, 0.
316, 0.700000, 0.800000, 0.
317, 0.800000, 0.800000, 0.
318, 0.900000, 0.800000, 0.
319, 1.000000, 0.800000, 0.
320, 1.100000, 0.800000, 0.
321, 1.200000, 0.800000, 0.
322, 1.300000, 0.800000, 0.
323, 1.400000, 0.800000, 0.
324, 1.500000, 0.800000, 0.
325, 1.600000, 0.800000, 0.
326, 1.700000, 0.800000, 0.
327, 1.800000, 0.800000, 0.
328, 1.900000, 0.800000, 0.
329, 2.000000, 0.800000, 0.
330, 2.100000, 0.800000, 0.
331, 2.200000, 0.800000, 0.
332, 2.300000, 0.800000, 0.
333, 2.400000, 0.800000, 0.
334, 2.500000, 0.800000, 0.
335, 2.600000, 0.800000, 0.
336, 2.700000, 0.800000, 0.
337, 2.800000, 0.800000, 0.
338, 2.900000, 0.800000, 0.
339, 3.000000, 0.800000, 0.
340, 3.100000, 0.800000, 0.
341, 3.200000, 0.800000, 0.
342, 3.300000, 0.800000, 0.
343, 3.400000, 0.800000, 0.
344, 3.500000, 0.800000, 0.
345, 3.600000, 0.800000, 0.
346, 3.700000, 0.800000, 0.
347, 3.800000, 0.800000, 0.
348, 3.900000, 0.800000, 0.
349, 4.000000, 0.800000, 0.
350, 4.100000, 0.800000, 0.
351, 4.200000, 0.800000, 0.
352, 4.300000, 0.800000, 0.
353, 4.400000, 0.800000, 0.
354, 4.500000, 0.800000, 0.
355, 4.600000, 0.800000, 0.
356, 4.700000, 0.800000, 0.
357, 4.800000, 0.800000, 0.
358, 4.900000, 0.800000, 0.
359, 5.000000, 0.800000, 0.
360, 0.000000, 0.900000, 0.
361, 0.200000, 0.900000, 0.
362, 0.400000, 0.900000, 0.
363, 0.600000, 0.900000, 0.
364, 0.800000, 0.900000, 0.
365, 1.000000, 0.900000, 0.
366, 1.200000, 0.900000, 0.
367, 1.400000, 0.900000, 0.
368, 1.600000, 0.900000, 0.
369, 1.800000, 0.900000, 0.
370, 2.000000, 0.900000, 0.
371, 2.200000, 0.900000, 0.
372, 2.400000, 0.900000, 0.
373, 2.600000, 0.900000, 0.
374, 2.800000, 0.900000, 0.
375, 3.000000, 0.900000, 0.
376, 3.200000, 0.900000, 0.
377, 3.400000, 0.900000, 0.
378, 3.600000, 0.900000, 0.
379, 3.800000, 0.900000, 0.
380, 4.000000, 0.900000, 0.
381, 4.200000, 0.900000, 0.
382, 4.400000, 0.900000, 0.
383, 4.600000, 0.900000, 0.
384, 4.800000, 0.900000, 0.
385, 5.000000, 0.900000, 0.
386, 0.000000, 1.000000, 0.
387, 0.100000, 1.000000, 0.
388, 0.200000, 1.000000, 0.
389, 0.300000, 1.000000, 0.
390, 0.400000, 1.000000, 0.
391, 0.500000, 1.000000, 0.
392, 0.600000, 1.000000, 0.
393, 0.700000, 1.000000, 0.
394, 0.800000, 1.000000, 0.
395, 0.900000, 1.000000, 0.
396, 1.000000, 1.000000, 0.
397, 1.100000, 1.000000, 0.
398, 1.200000, 1.000000, 0.
399, 1.300000, 1.000000, 0.
400, 1.400000, 1.000000, 0.
401, 1.500000, 1.000000, 0.
402, 1.600000, 1.000000, 0.
403, 1.700000, 1.000000, 0.
404, 1.800000, 1.000000, 0.
405, 1.900000, 1.000000, 0.
406, 2.000000, 1.000000, 0.
407, 2.100000, 1.000000, 0.
408, 2.200000, 1.000000, 0.
409, 2.300000, 1.000000, 0.
410, 2.400000, 1.000000, 0.
411, 2.500000, 1.000000, 0.
412, 2.600000, 1.000000, 0.
413, 2.700000, 1.000000, 0.
414, 2.800000, 1.000000, 0.
415, 2.900000, 1.000000, 0.
416, 3.000000, 1.000000, 0.
417, 3.100000, 1.000000, 0.
418, 3.200000, 1.000000, 0.
419, 3.300000, 1.000000, 0.
420, 3.400000, 1.000000, 0.
421, 3.500000, 1.000000, 0.
422, 3.600000, 1.000000, 0.
423, 3.700000, 1.000000, 0.
424, 3.800000, 1.000000, 0.
425, 3.900000, 1.000000, 0.
426, 4.000000, 1.000000, 0.
427, 4.100000, 1.000000, 0.
428, 4.200000, 1.000000, 0.
429, 4.300000, 1.000000, 0.
430, 4.400000, 1.000000, 0.
431, 4.500000, 1.000000, 0.
432, 4.600000, 1.000000, 0.
433, 4.700000, 1.000000, 0.
434, 4.800000, 1.000000, 0.
435, 4.900000, 1.000000, 0.
436, 5.000000, 1.000000, 0.
437, 0.000000, 1.100000, 0.
438, 0.200000, 1.100000, 0.
439, 0.400000, 1.100000, 0.
440, 0.600000, 1.100000, 0.
441, 0.800000, 1.100000, 0.
442, 1.000000, 1.100000, 0.
443, 1.200000, 1.100000, 0.
444, 1.400000, 1.100000, 0.
445, 1.600000, 1.100000, 0.
446, 1.800000, 1.100000, 0.
447, 2.000000, 1.100000, 0.
448, 2.200000, 1.100000, 0.
449, 2.400000, 1.100000, 0.
450, 2.600000, 1.100000, 0.
451, 2.800000, 1.100000, 0.
452, 3.000000, 1.100000, 0.
453, 3.200000, 1.100000, 0.
454, 3.400000, 1.100000, 0.
455, 3.600000, 1.100000, 0.
456, 3.800000, 1.100000, 0.
457, 4.000000, 1.100000, 0.
458, 4.200000, 1.100000, 0.
459, 4.400000, 1.100000, 0.
460, 4.600000, 1.100000, 0.
461, 4.800000, 1.100000, 0.
462, 5.000000, 1.100000, 0.
463, 0.000000, 1.200000, 0.
464, 0.100000, 1.200000, 0.
465, 0.200000, 1.200000, 0.
466, 0.300000, 1.200000, 0.
467, 0.400000, 1.200000, 0.
468, 0.500000, 1.200000, 0.
469, 0.600000, 1.200000, 0.
470, 0.700000, 1.200000, 0.
471, 0.800000, 1.200000, 0.
472, 0.900000, 1.200000, 0.
473, 1.000000, 1.200000, 0.
474, 1.100000, 1.200000, 0.
475, 1.200000, 1.200000, 0.
476, 1.300000, 1.200000, 0.
477, 1.400000, 1.200000, 0.
478, 1.500000, 1.200000, 0.
479, 1.600000, 1.200000, 0.
480, 1.700000, 1.200000, 0.
481, 1.800000, 1.200000, 0.
482, 1.900000, 1.200000, 0.
483, 2.000000, 1.200000, 0.
484, 2.100000, 1.200000, 0.
485, 2.200000, 1.200000, 0.
486, 2.300000, 1.200000, 0.
487, 2.400000, 1.200000, 0.
488, 2.500000, 1.200000, 0.
489, 2.600000, 1.200000, 0.
490, 2.700000, 1.200000, 0.
491, 2.800000, 1.200000, 0.
492, 2.900000, 1.200000, 0.
493, 3.000000, 1.200000, 0.
494, 3.100000, 1.200000, 0.
495, 3.200000, 1.200000, 0.
496, 3.300000, 1.200000, 0.
497, 3.400000, 1.200000, 0.
498, 3.500000, 1.200000, 0.
499, 3.600000, 1.200000, 0.
500, 3.700000, 1.200000, 0.
501, 3.800000, 1.200000, 0.
502, 3.900000, 1.200000, 0.
503, 4.000000, 1.200000, 0.
504, 4.100000, 1.200000, 0.
505, 4.200000, 1.200000, 0.
506, 4.300000, 1.200000, 0.
507, 4.400000, 1.200000, 0.
508, 4.500000, 1.200000, 0.
509, 4.600000, 1.200000, 0.
510, 4.700000, 1.200000, 0.
511, 4.800000, 1.200000, 0.
512, 4.900000, 1.200000, 0.
513, 5.000000, 1.200000, 0.
514, 0.000000, 1.300000, 0.
515, 0.200000, 1.300000, 0.
516, 0.400000, 1.300000, 0.
517, 0.600000, 1.300000, 0.
518, 0.800000, 1.300000, 0.
519, 1.000000, 1.300000, 0.
520, 1.200000, 1.300000, 0.
521, 1.400000, 1.300000, 0.
522, 1.600000, 1.300000, 0.
523, 1.800000, 1.300000, 0.
524, 2.000000, 1.300000, 0.
525, 2.200000, 1.300000, 0.
526, 2.400000, 1.300000, 0.
527, 2.600000, 1.300000, 0.
528, 2.800000, 1.300000, 0.
529, 3.000000, 1.300000, 0.
530, 3.200000, 1.300000, 0.
531, 3.400000, 1.300000, 0.
532, 3.600000, 1.300000, 0.
533, 3.800000, 1.300000, 0.
534, 4.000000, 1.300000, 0.
535, 4.200000, 1.300000, 0.
536, 4.400000, 1.300000, 0.
537, 4.600000, 1.300000, 0.
538, 4.800000, 1.300000, 0.
539, 5.000000, 1.300000, 0.
540, 0.000000, 1.400000, 0.
541, 0.100000, 1.400000, 0.
542, 0.200000, 1.400000, 0.
543, 0.300000, 1.400000, 0.
544, 0.400000, 1.400000, 0.
545, 0.500000, 1.400000, 0.
546, 0.600000, 1.400000, 0.
547, 0.700000, 1.400000, 0.
548, 0.800000, 1.400000, 0.
549, 0.900000, 1.400000, 0.
550, 1.000000, 1.400000, 0.
551, 1.100000, 1.400000, 0.
552, 1.200000, 1.400000, 0.
553, 1.300000, 1.400000, 0.
554, 1.400000, 1.400000, 0.
555, 1.500000, 1.400000, 0.
556, 1.600000, 1.400000, 0.
557, 1.700000, 1.400000, 0.
558, 1.800000, 1.400000, 0.
559, 1.900000, 1.400000, 0.
560, 2.000000, 1.400000, 0.
561, 2.100000, 1.400000, 0.
562, 2.200000, 1.400000, 0.
563, 2.300000, 1.400000, 0.
564, 2.400000, 1.400000, 0.
565, 2.500000, 1.400000, 0.
566, 2.600000, 1.400000, 0.
567, 2.700000, 1.400000, 0.
568, 2.800000, 1.400000, 0.
569, 2.900000, 1.400000, 0.
570, 3.000000, 1.400000, 0.
571, 3.100000, 1.400000, 0.
572, 3.200000, 1.400000, 0.
573, 3.300000, 1.400000, 0.
574, 3.400000, 1.400000, 0.
575, 3.500000, 1.400000, 0.
576, 3.600000, 1.400000, 0.
577, 3.700000, 1.400000, 0.
578, 3.800000, 1.400000, 0.
579, 3.900000, 1.400000, 0.
580, 4.000000, 1.400000, 0.
581, 4.100000, 1.400000, 0.
582, 4.200000, 1.400000, 0.
583, 4.300000, 1.400000, 0.
584, 4.400000, 1.400000, 0.
585, 4.500000, 1.400000, 0.
586, 4.600000, 1.400000, 0.
587, 4.700000, 1.400000, 0.
588, 4.800000, 1.400000, 0.
589, 4.900000, 1.400000, 0.
590, 5.000000, 1.400000, 0.
591, 0.000000, 1.500000, 0.
592, 0.200000, 1.500000, 0.
593, 0.400000, 1.500000, 0.
594, 0.600000, 1.500000, 0.
595, 0.800000, 1.500000, 0.
596, 1.000000, 1.500000, 0.
597, 1.200000, 1.500000, 0.
598, 1.400000, 1.500000, 0.
599, 1.600000, 1.500000, 0.
600, 1.800000, 1.500000, 0.
601, 2.000000, 1.500000, 0.
602, 2.200000, 1.500000, 0.
603, 2.400000, 1.500000, 0.
604, 2.600000, 1.500000, 0.
605, 2.800000, 1.500000, 0.
606, 3.000000, 1.500000, 0.
607, 3.200000, 1.500000, 0.
608, 3.400000, 1.500000, 0.
609, 3.600000, 1.500000, 0.
610, 3.800000, 1.500000, 0.
611, 4.000000, 1.500000, 0.
612, 4.200000, 1.500000, 0.
613, 4.400000, 1.500000, 0.
614, 4.600000, 1.500000, 0.
615, 4.800000, 1.500000, 0.
616, 5.000000, 1.500000, 0.
617, 0.000000, 1.600000, 0.
618, 0.100000, 1.600000, 0.
619, 0.200000, 1.600000, 0.
620, 0.300000, 1.600000, 0.
621, 0.400000, 1.600000, 0.
622, 0.500000, 1.600000, 0.
623, 0.600000, 1.600000, 0.
624, 0.700000, 1.600000, 0.
625, 0.800000, 1.600000, 0.
626, 0.900000, 1.600000, 0.
627, 1.000000, 1.600000, 0.
628, 1.100000, 1.600000, 0.
629, 1.200000, 1.600000, 0.
630, 1.300000, 1.600000, 0.
631, 1.400000, 1.600000, 0.
632, 1.500000, 1.600000, 0.
633, 1.600000, 1.600000, 0.
634, 1.700000, 1.600000, 0.
635, 1.800000, 1.600000, 0.
636, 1.900000, 1.600000, 0.
637, 2.000000, 1.600000, 0.
638, 2.100000, 1.600000, 0.
639, 2.200000, 1.600000, 0.
640, 2.300000, 1.600000, 0.
641, 2.400000, 1.600000, 0.
642, 2.500000, 1.600000, 0.
643, 2.600000, 1.600000, 0.
644, 2.700000, 1.600000, 0.
645, 2.800000, 1.600000, 0.
646, 2.900000, 1.600000, 0.
647, 3.000000, 1.600000, 0.
648, 3.100000, 1.600000, 0.
649, 3.200000, 1.600000, 0.
650, 3.300000, 1.600000, 0.
651, 3.400000, 1.600000, 0.
652, 3.500000, 1.600000, 0.
653, 3.600000, 1.600000, 0.
654, 3.700000, 1.600000, 0.
655, 3.800000, 1.600000, 0.
656, 3.900000, 1.600000, 0.
657, 4.000000, 1.600000, 0.
658, 4.100000, 1.600000, 0.
659, 4.200000, 1.600000, 0.
660, 4.300000, 1.600000, 0.
661, 4.400000, 1.600000, 0.
662, 4.500000, 1.600000, 0.
663, 4.600000, 1.600000, 0.
664, 4.700000, 1.600000, 0.
665, 4.800000, 1.600000, 0.
666, 4.900000, 1.600000, 0.
667, 5.000000, 1.600000, 0.
668, 0.000000, 1.700000, 0.
669, 0.200000, 1.700000, 0.
670, 0.400000, 1.700000, 0.
671, 0.600000, 1.700000, 0.
672, 0.800000, 1.700000, 0.
673, 1.000000, 1.700000, 0.
674, 1.200000, 1.700000, 0.
675, 1.400000, 1.700000, 0.
676, 1.600000, 1.700000, 0.
677, 1.800000, 1.700000, 0.
678, 2.000000, 1.700000, 0.
679, 2.200000, 1.700000, 0.
680, 2.400000, 1.700000, 0.
681, 2.600000, 1.700000, 0.
682, 2.800000, 1.700000, 0.
683, 3.000000, 1.700000, 0.
684, 3.200000, 1.700000, 0.
685, 3.400000, 1.700000, 0.
686, 3.600000, 1.700000, 0.
687, 3.800000, 1.700000, 0.
688, 4.000000, 1.700000, 0.
689, 4.200000, 1.700000, 0.
690, 4.400000, 1.700000, 0.
691, 4.600000, 1.700000, 0.
692, 4.800000, 1.700000, 0.
693, 5.000000, 1.700000, 0.
694, 0.000000, 1.800000, 0.
695, 0.100000, 1.800000, 0.
696, 0.200000, 1.800000, 0.
697, 0.300000, 1.800000, 0.
698, 0.400000, 1.800000, 0.
699, 0.500000, 1.800000, 0.
700, 0.600000, 1.800000, 0.
701, 0.700000, 1.800000, 0.
702, 0.800000, 1.800000, 0.
703, 0.900000, 1.800000, 0.
704, 1.000000, 1.800000, 0.
705, 1.100000, 1.800000, 0.
706, 1.200000, 1.800000, 0.
707, 1.300000, 1.800000, 0.
708, 1.400000, 1.800000, 0.
709, 1.500000, 1.800000, 0.
710, 1.600000, 1.800000, 0.
711, 1.700000, 1.800000, 0.
712, 1.800000, 1.800000, 0.
713, 1.900000, 1.800000, 0.
714, 2.000000, 1.800000, 0.
715, 2.100000, 1.800000, 0.
716, 2.200000, 1.800000, 0.
717, 2.300000, 1.800000, 0.
718, 2.400000, 1.800000, 0.
719, 2.500000, 1.800000, 0.
720, 2.600000, 1.800000, 0.
721, 2.700000, 1.800000, 0.
722, 2.800000, 1.800000, 0.
723, 2.900000, 1.800000, 0.
724, 3.000000, 1.800000, 0.
725, 3.100000, 1.800000, 0.
726, 3.200000, 1.800000, 0.
727, 3.300000, 1.800000, 0.
728, 3.400000, 1.800000, 0.
729, 3.500000, 1.800000, 0.
730, 3.600000, 1.800000, 0.
731, 3.700000, 1.800000, 0.
732, 3.800000, 1.800000, 0.
733, 3.900000, 1.800000, 0.
734, 4.000000, 1.800000, 0.
735, 4.100000, 1.800000, 0.
736, 4.200000, 1.800000, 0.
737, 4.300000, 1.800000, 0.
738, 4.400000, 1.800000, 0.
739, 4.500000, 1.800000, 0.
740, 4.600000, 1.800000, 0.
741, 4.700000, 1.800000, 0.
742, 4.800000, 1.800000, 0.
743, 4.900000, 1.800000, 0.
744, 5.000000, 1.800000, 0.
745, 0.000000, 1.900000, 0.
746, 0.200000, 1.900000, 0.
747, 0.400000, 1.900000, 0.
748, 0.600000, 1.900000, 0.
749, 0.800000, 1.900000, 0.
750, 1.000000, 1.900000, 0.
751, 1.200000, 1.900000, 0.
752, 1.400000, 1.900000, 0.
753, 1.600000, 1.900000, 0.
754, 1.800000, 1.900000, 0.
755, 2.000000, 1.900000, 0.
756, 2.200000, 1.900000, 0.
757, 2.400000, 1.900000, 0.
758, 2.600000, 1.900000, 0.
759, 2.800000, 1.900000, 0.
760, 3.000000, 1.900000, 0.
761, 3.200000, 1.900000, 0.
762, 3.400000, 1.900000, 0.
763, 3.600000, 1.900000, 0.
764, 3.800000, 1.900000, 0.
765, 4.000000, 1.900000, 0.
766, 4.200000, 1.900000, 0.
767, 4.400000, 1.900000, 0.
768, 4.600000, 1.900000, 0.
769, 4.800000, 1.900000, 0.
770, 5.000000, 1.900000, 0.
771, 0.000000, 2.000000, 0.
772, 0.100000, 2.000000, 0.
773, 0.200000, 2.000000, 0.
774, 0.300000, 2.000000, 0.
775, 0.400000, 2.000000, 0.
776, 0.500000, 2.000000, 0.
777, 0.600000, 2.000000, 0.
778, 0.700000, 2.000000, 0.
779, 0.800000, 2.000000, 0.
780, 0.900000, 2.000000, 0.
781, 1.000000, 2.000000, 0.
782, 1.100000, 2.000000, 0.
783, 1.200000, 2.000000, 0.
784, 1.300000, 2.000000, 0.
785, 1.400000, 2.000000, 0.
786, 1.500000, 2.000000, 0.
787, 1.600000, 2.000000, 0.
788, 1.700000, 2.000000, 0.
789, 1.800000, 2.000000, 0.
790, 1.900000, 2.000000, 0.
791, 2.000000, 2.000000, 0.
792, 2.100000, 2.000000, 0.
793, 2.200000, 2.000000, 0.
794, 2.300000, 2.000000, 0.
795, 2.400000, 2.000000, 0.
796, 2.500000, 2.000000, 0.
797, 2.600000, 2.000000, 0.
798, 2.700000, 2.000000, 0.
799, 2.800000, 2.000000, 0.
800, 2.900000, 2.000000, 0.
801, 3.000000, 2.000000, 0.
802, 3.100000, 2.000000, 0.
803, 3.200000, 2.000000, 0.
804, 3.300000, 2.000000, 0.
805, 3.400000, 2.000000, 0.
806, 3.500000, 2.000000, 0.
807, 3.600000, 2.000000, 0.
808, 3.700000, 2.000000, 0.
809, 3.800000, 2.000000, 0.
810, 3.900000, 2.000000, 0.
811, 4.000000, 2.000000, 0.
812, 4.100000, 2.000000, 0.
813, 4.200000, 2.000000, 0.
814, 4.300000, 2.000000, 0.
815, 4.400000, 2.000000, 0.
816, 4.500000, 2.000000, 0.
817, 4.600000, 2.000000, 0.
818, 4.700000, 2.000000, 0.
819, 4.800000, 2.000000, 0.
820, 4.900000, 2.000000, 0.
821, 5.000000, 2.000000, 0.
822, 0.000000, 2.100000, 0.
823, 0.200000, 2.100000, 0.
824, 0.400000, 2.100000, 0.
825, 0.600000, 2.100000, 0.
826, 0.800000, 2.100000, 0.
827, 1.000000, 2.100000, 0.
828, 1.200000, 2.100000, 0.
829, 1.400000, 2.100000, 0.
830, 1.600000, 2.100000, 0.
831, 1.800000, 2.100000, 0.
832, 2.000000, 2.100000, 0.
833, 2.200000, 2.100000, 0.
834, 2.400000, 2.100000, 0.
835, 2.600000, 2.100000, 0.
836, 2.800000, 2.100000, 0.
837, 3.000000, 2.100000, 0.
838, 3.200000, 2.100000, 0.
839, 3.400000, 2.100000, 0.
840, 3.600000, 2.100000, 0.
841, 3.800000, 2.100000, 0.
842, 4.000000, 2.100000, 0.
843, 4.200000, 2.100000, 0.
844, 4.400000, 2.100000, 0.
845, 4.600000, 2.100000, 0.
846, 4.800000, 2.100000, 0.
847, 5.000000, 2.100000, 0.
848, 0.000000, 2.200000, 0.
849, 0.100000, 2.200000, 0.
850, 0.200000, 2.200000, 0.
851, 0.300000, 2.200000, 0.
852, 0.400000, 2.200000, 0.
853, 0.500000, 2.200000, 0.
854, 0.600000, 2.200000, 0.
855, 0.700000, 2.200000, 0.
856, 0.800000, 2.200000, 0.
857, 0.900000, 2.200000, 0.
858, 1.000000, 2.200000, 0.
859, 1.100000, 2.200000, 0.
860, 1.200000, 2.200000, 0.
861, 1.300000, 2.200000, 0.
862, 1.400000, 2.200000, 0.
863, 1.500000, 2.200000, 0.
864, 1.600000, 2.200000, 0.
865, 1.700000, 2.200000, 0.
866, 1.800000, 2.200000, 0.
867, 1.900000, 2.200000, 0.
868, 2.000000, 2.200000, 0.
869, 2.100000, 2.200000, 0.
870, 2.200000, 2.200000, 0.
871, 2.300000, 2.200000, 0.
872, 2.400000, 2.200000, 0.
873, 2.500000, 2.200000, 0.
874, 2.600000, 2.200000, 0.
875, 2.700000, 2.200000, 0.
876, 2.800000, 2.200000, 0.
877, 2.900000, 2.200000, 0.
878, 3.000000, 2.200000, 0.
879, 3.100000, 2.200000, 0.
880, 3.200000, 2.200000, 0.
881, 3.300000, 2.200000, 0.
882, 3.400000, 2.200000, 0.
883, 3.500000, 2.200000, 0.
884, 3.600000, 2.200000, 0.
885, 3.700000, 2.200000, 0.
886, 3.800000, 2.200000, 0.
887, 3.900000, 2.200000, 0.
888, 4.000000, 2.200000, 0.
889, 4.100000, 2.200000, 0.
890, 4.200000, 2.200000, 0.
891, 4.300000, 2.200000, 0.
892, 4.400000, 2.200000, 0.
893, 4.500000, 2.200000, 0.
894, 4.600000, 2.200000, 0.
895, 4.700000, 2.200000, 0.
896, 4.800000, 2.200000, 0.
897, 4.900000, 2.200000, 0.
898, 5.000000, 2.200000, 0.
899, 0.000000, 2.300000, 0.
900, 0.200000, 2.300000, 0.
901, 0.400000, 2.300000, 0.
902, 0.600000, 2.300000, 0.
903, 0.800000, 2.300000, 0.
904, 1.000000, 2.300000, 0.
905, 1.200000, 2.300000, 0.
906, 1.400000, 2.300000, 0.
907, 1.600000, 2.300000, 0.
908, 1.800000, 2.300000, 0.
909, 2.000000, 2.300000, 0.
910, 2.200000, 2.300000, 0.
911, 2.400000, 2.300000, 0.
912, 2.600000, 2.300000, 0.
913, 2.800000, 2.300000, 0.
914, 3.000000, 2.300000, 0.
915, 3.200000, 2.300000, 0.
916, 3.400000, 2.300000, 0.
917, 3.600000, 2.300000, 0.
918, 3.800000, 2.300000, 0.
919, 4.000000, 2.300000, 0.
920, 4.200000, 2.300000, 0.
921, 4.400000, 2.300000, 0.
922, 4.600000, 2.300000, 0.
923, 4.800000, 2.300000, 0.
924, 5.000000, 2.300000, 0.
925, 0.000000, 2.400000, 0.
926, 0.100000, 2.400000, 0.
927, 0.200000, 2.400000, 0.
928, 0.300000, 2.400000, 0.
929, 0.400000, 2.400000, 0.
930, 0.500000, 2.400000, 0.
931, 0.600000, 2.400000, 0.
932, 0.700000, 2.400000, 0.
933, 0.800000, 2.400000, 0.
934, 0.900000, 2.400000, 0.
935, 1.000000, 2.400000, 0.
936, 1.100000, 2.400000, 0.
937, 1.200000, 2.400000, 0.
938, 1.300000, 2.400000, 0.
939, 1.400000, 2.400000, 0.
940, 1.500000, 2.400000, 0.
941, 1.600000, 2.400000, 0.
942, 1.700000, 2.400000, 0.
943, 1.800000, 2.400000, 0.
944, 1.900000, 2.400000, 0.
945, 2.000000, 2.400000, 0.
946, 2.100000, 2.400000, 0.
947, 2.200000, 2.400000, 0.
948, 2.300000, 2.400000, 0.
949, 2.400000, 2.400000, 0.
950, 2.500000, 2.400000, 0.
951, 2.600000, 2.400000, 0.
952, 2.700000, 2.400000, 0.
953, 2.800000, 2.400000, 0.
954, 2.900000, 2.400000, 0.
955, 3.000000, 2.400000, 0.
956, 3.100000, 2.400000, 0.
957, 3.200000, 2.400000, 0.
958, 3.300000, 2.400000, 0.
959, 3.400000, 2.400000, 0.
960, 3.500000, 2.400000, 0.
961, 3.600000, 2.400000, 0.
962, 3.700000, 2.400000, 0.
963, 3.800000, 2.400000, 0.
964, 3.900000, 2.400000, 0.
965, 4.000000, 2.400000, 0.
966, 4.100000, 2.400000, 0.
967, 4.200000, 2.400000, 0.
968, 4.300000, 2.400000, 0.
969, 4.400000, 2.400000, 0.
970, 4.500000, 2.400000, 0.
971, 4.600000, 2.400000, 0.
972, 4.700000, 2.400000, 0.
973, 4.800000, 2.400000, 0.
974, 4.900000, 2.400000, 0.
975, 5.000000, 2.400000, 0.
976, 0.000000, 2.500000, 0.
977, 0.200000, 2.500000, 0.
978, 0.400000, 2.500000, 0.
979, 0.600000, 2.500000, 0.
980, 0.800000, 2.500000, 0.
981, 1.000000, 2.500000, 0.
982, 1.200000, 2.500000, 0.
983, 1.400000, 2.500000, 0.
984, 1.600000, 2.500000, 0.
985, 1.800000, 2.500000, 0.
986, 2.000000, 2.500000, 0.
987, 2.200000, 2.500000, 0.
988, 2.400000, 2.500000, 0.
989, 2.600000, 2.500000, 0.
990, 2.800000, 2.500000, 0.
991, 3.000000, 2.500000, 0.
992, 3.200000, 2.500000, 0.
993, 3.400000, 2.500000, 0.
994, 3.600000, 2.500000, 0.
995, 3.800000, 2.500000, 0.
996, 4.000000, 2.500000, 0.
997, 4.200000, 2.500000, 0.
998, 4.400000, 2.500000, 0.
999, 4.600000, 2.500000, 0.
1000, 4.800000, 2.500000, 0.
1001, 5.000000, 2.500000, 0.
1002, 0.000000, 2.600000, 0.
1003, 0.100000, 2.600000, 0.
1004, 0.200000, 2.600000, 0.
1005, 0.300000, 2.600000, 0.
1006, 0.400000, 2.600000, 0.
1007, 0.500000, 2.600000, 0.
1008, 0.600000, 2.600000, 0.
1009, 0.700000, 2.600000, 0.
1010, 0.800000, 2.600000, 0.
1011, 0.900000, 2.600000, 0.
1012, 1.000000, 2.600000, 0.
1013, 1.100000, 2.600000, 0.
1014, 1.200000, 2.600000, 0.
1015, 1.300000, 2.600000, 0.
1016, 1.400000, 2.600000, 0.
1017, 1.500000, 2.600000, 0.
1018, 1.600000, 2.600000, 0.
1019, 1.700000, 2.600000, 0.
1020, 1.800000, 2.600000, 0.
1021, 1.900000, 2.600000, 0.
1022, 2.000000, 2.600000, 0.
1023, 2.100000, 2.600000, 0.
1024, 2.200000, 2.600000, 0.
1025, 2.300000, 2.600000, 0.
1026, 2.400000, 2.600000, 0.
1027, 2.500000, 2.600000, 0.
1028, 2.600000, 2.600000, 0.
1029, 2.700000, 2.600000, 0.
1030, 2.800000, 2.600000, 0.
1031, 2.900000, 2.600000, 0.
1032, 3.000000, 2.600000, 0.
1033, 3.100000, 2.600000, 0.
1034, 3.200000, 2.600000, 0.
1035, 3.300000, 2.600000, 0.
1036, 3.400000, 2.600000, 0.
1037, 3.500000, 2.600000, 0.
1038, 3.600000, 2.600000, 0.
1039, 3.700000, 2.600000, 0.
1040, 3.800000, 2.600000, 0.
1041, 3.900000, 2.600000, 0.
1042, 4.000000, 2.600000, 0.
1043, 4.100000, 2.600000, 0.
1044, 4.200000, 2.600000, 0.
1045, 4.300000, 2.600000, 0.
1046, 4.400000, 2.600000, 0.
1047, 4.500000, 2.600000, 0.
1048, 4.600000, 2.600000, 0.
1049, 4.700000, 2.600000, 0.
1050, 4.800000, 2.600000, 0.
1051, 4.900000, 2.600000, 0.
1052, 5.000000, 2.600000, 0.
1053, 0.000000, 2.700000, 0.
1054, 0.200000, 2.700000, 0.
1055, 0.400000, 2.700000, 0.
1056, 0.600000, 2.700000, 0.
1057, 0.800000, 2.700000, 0.
1058, 1.000000, 2.700000, 0.
1059, 1.200000, 2.700000, 0.
1060, 1.400000, 2.700000, 0.
1061, 1.600000, 2.700000, 0.
1062, 1.800000, 2.700000, 0.
1063, 2.000000, 2.700000, 0.
1064, 2.200000, 2.700000, 0.
1065, 2.400000, 2.700000, 0.
1066, 2.600000, 2.700000, 0.
1067, 2.800000, 2.700000, 0.
1068, 3.000000, 2.700000, 0.
1069, 3.200000, 2.700000, 0.
1070, 3.400000, 2.700000, 0.
1071, 3.600000, 2.700000, 0.
1072, 3.800000, 2.700000, 0.
1073, 4.000000, 2.700000, 0.
1074, 4.200000, 2.700000, 0.
1075, 4.400000, 2.700000, 0.
1076, 4.600000, 2.700000, 0.
1077, 4.800000, 2.700000, 0.
1078, 5.000000, 2.700000, 0.
1079, 0.000000, 2.800000, 0.
1080, 0.100000, 2.800000, 0.
1081, 0.200000, 2.800000, 0.
1082, 0.300000, 2.800000, 0.
1083, 0.400000, 2.800000, 0.
1084, 0.500000, 2.800000, 0.
1085, 0.600000, 2.800000, 0.
1086, 0.700000, 2.800000, 0.
1087, 0.800000, 2.800000, 0.
1088, 0.900000, 2.800000, 0.
1089, 1.000000, 2.800000, 0.
1090, 1.100000, 2.800000, 0.
1091, 1.200000, 2.800000, 0.
1092, 1.300000, 2.800000, 0.
1093, 1.400000, 2.800000, 0.
1094, 1.500000, 2.800000, 0.
1095, 1.600000, 2.800000, 0.
1096, 1.700000, 2.800000, 0.
1097, 1.800000, 2.800000, 0.
1098, 1.900000, 2.800000, 0.
1099, 2.000000, 2.800000, 0.
1100, 2.100000, 2.800000, 0.
1101, 2.200000, 2.800000, 0.
1102, 2.300000, 2.800000, 0.
1103, 2.400000, 2.800000, 0.
1104, 2.500000, 2.800000, 0.
1105, 2.600000, 2.800000, 0.
1106, 2.700000, 2.800000, 0.
1107, 2.800000, 2.800000, 0.
1108, 2.900000, 2.800000, 0.
1109, 3.000000, 2.800000, 0.
1110, 3.100000, 2.800000, 0.
1111, 3.200000, 2.800000, 0.
1112, 3.300000, 2.800000, 0.
1113, 3.400000, 2.800000, 0.
1114, 3.500000, 2.800000, 0.
1115, 3.600000, 2.800000, 0.
1116, 3.700000, 2.800000, 0.
1117, 3.800000, 2.800000, 0.
1118, 3.900000, 2.800000, 0.
1119, 4.000000, 2.800000, 0.
1120, 4.100000, 2.800000, 0.
1121, 4.200000, 2.800000, 0.
1122, 4.300000, 2.800000, 0.
1123, 4.400000, 2.800000, 0.
1124, 4.500000, 2.800000, 0.
1125, 4.600000, 2.800000, 0.
1126, 4.700000, 2.800000, 0.
1127, 4.800000, 2.800000, 0.
1128, 4.900000, 2.800000, 0.
1129, 5.000000, 2.800000, 0.
1130, 0.000000, 2.900000, 0.
1131, 0.200000, 2.900000, 0.
1132, 0.400000, 2.900000, 0.
1133, 0.600000, 2.900000, 0.
1134, 0.800000, 2.900000, 0.
1135, 1.000000, 2.900000, 0.
1136, 1.200000, 2.900000, 0.
1137, 1.400000, 2.900000, 0.
1138, 1.600000, 2.900000, 0.
1139, 1.800000, 2.900000, 0.
1140, 2.000000, 2.900000, 0.
1141, 2.200000, 2.900000, 0.
1142, 2.400000, 2.900000, 0.
1143, 2.600000, 2.900000, 0.
1144, 2.800000, 2.900000, 0.
1145, 3.000000, 2.900000, 0.
1146, 3.200000, 2.900000, 0.
1147, 3.400000, 2.900000, 0.
1148, 3.600000, 2.900000, 0.
1149, 3.800000, 2.900000, 0.
1150, 4.000000, 2.900000, 0.
1151, 4.200000, 2.900000, 0.
1152, 4.400000, 2.900000, 0.
1153, 4.600000, 2.900000, 0.
1154, 4.800000, 2.900000, 0.
1155, 5.000000, 2.900000, 0.
1156, 0.000000, 3.000000, 0.
1157, 0.100000, 3.000000, 0.
1158, 0.200000, 3.000000, 0.
1159, 0.300000, 3.000000, 0.
1160, 0.400000, 3.000000, 0.
1161, 0.500000, 3.000000, 0.
1162, 0.600000, 3.000000, 0.
1163, 0.700000, 3.000000, 0.
1164, 0.800000, 3.000000, 0.
1165, 0.900000, 3.000000, 0.
1166, 1.000000, 3.000000, 0.
1167, 1.100000, 3.000000, 0.
1168, 1.200000, 3.000000, 0.
1169, 1.300000, 3.000000, 0.
1170, 1.400000, 3.000000, 0.
1171, 1.500000, 3.000000, 0.
1172, 1.600000, 3.000000, 0.
1173, 1.700000, 3.000000, 0.
1174, 1.800000, 3.000000, 0.
1175, 1.900000, 3.000000, 0.
1176, 2.000000, 3.000000, 0.
1177, 2.100000, 3.000000, 0.
1178, 2.200000, 3.000000, 0.
1179, 2.300000, 3.000000, 0.
1180, 2.400000, 3.000000, 0.
1181, 2.500000, 3.000000, 0.
1182, 2.600000, 3.000000, 0.
1183, 2.700000, 3.000000, 0.
1184, 2.800000, 3.000000, 0.
1185, 2.900000, 3.000000, 0.
1186, 3.000000, 3.000000, 0.
1187, 3.100000, 3.000000, 0.
1188, 3.200000, 3.000000, 0.
1189, 3.300000, 3.000000, 0.
1190, 3.400000, 3.000000, 0.
1191, 3.500000, 3.000000, 0.
1192, 3.600000, 3.000000, 0.
1193, 3.700000, 3.000000, 0.
1194, 3.800000, 3.000000, 0.
1195, 3.900000, 3.000000, 0.
1196, 4.000000, 3.000000, 0.
1197, 4.100000, 3.000000, 0.
1198, 4.200000, 3.000000, 0.
1199, 4.300000, 3.000000, 0.
1200, 4.400000, 3.000000, 0.
1201, 4.500000, 3.000000, 0.
1202, 4.600000, 3.000000, 0.
1203, 4.700000, 3.000000, 0.
1204, 4.800000, 3.000000, 0.
1205, 4.900000, 3.000000, 0.
1206, 5.000000, 3.000000, 0.
1207, 0.000000, 3.100000, 0.
1208, 0.200000, 3.100000, 0.
1209, 0.400000, 3.100000, 0.
1210, 0.600000, 3.100000, 0.
1211, 0.800000, 3.100000, 0.
1212, 1.000000, 3.100000, 0.
1213, 1.200000, 3.100000, 0.
1214, 1.400000, 3.100000, 0.
1215, 1.600000, 3.100000, 0.
1216, 1.800000, 3.100000, 0.
1217, 2.000000, 3.100000, 0.
1218, 2.200000, 3.100000, 0.
1219, 2.400000, 3.100000, 0.
1220, 2.600000, 3.100000, 0.
1221, 2.800000, 3.100000, 0.
1222, 3.000000, 3.100000, 0.
1223, 3.200000, 3.100000, 0.
1224, 3.400000, 3.100000, 0.
1225, 3.600000, 3.100000, 0.
1226, 3.800000, 3.100000, 0.
1227, 4.000000, 3.100000, 0.
1228, 4.200000, 3.100000, 0.
1229, 4.400000, 3.100000, 0.
1230, 4.600000, 3.100000, 0.
1231, 4.800000, 3.100000, 0.
1232, 5.000000, 3.100000, 0.
1233, 0.000000, 3.200000, 0.
1234, 0.100000, 3.200000, 0.
1235, 0.200000, 3.200000, 0.
1236, 0.300000, 3.200000, 0.
1237, 0.400000, 3.200000, 0.
1238, 0.500000, 3.200000, 0.
1239, 0.600000, 3.200000, 0.
1240, 0.700000, 3.200000, 0.
1241, 0.800000, 3.200000, 0.
1242, 0.900000, 3.200000, 0.
1243, 1.000000, 3.200000, 0.
1244, 1.100000, 3.200000, 0.
1245, 1.200000, 3.200000, 0.
1246, 1.300000, 3.200000, 0.
1247, 1.400000, 3.200000, 0.
1248, 1.500000, 3.200000, 0.
1249, 1.600000, 3.200000, 0.
1250, 1.700000, 3.200000, 0.
1251, 1.800000, 3.200000, 0.
1252, 1.900000, 3.200000, 0.
1253, 2.000000, 3.200000, 0.
1254, 2.100000, 3.200000, 0.
1255, 2.200000, 3.200000, 0.
1256, 2.300000, 3.200000, 0.
1257, 2.400000, 3.200000, 0.
1258, 2.500000, 3.200000, 0.
1259, 2.600000, 3.200000, 0.
1260, 2.700000, 3.200000, 0.
1261, 2.800000, 3.200000, 0.
1262, 2.900000, 3.200000, 0.
1263, 3.000000, 3.200000, 0.
1264, 3.100000, 3.200000, 0.
1265, 3.200000, 3.200000, 0.
1266, 3.300000, 3.200000, 0.
1267, 3.400000, 3.200000, 0.
1268, 3.500000, 3.200000, 0.
1269, 3.600000, 3.200000, 0.
1270, 3.700000, 3.200000, 0.
1271, 3.800000, 3.200000, 0.
1272, 3.900000, 3.200000, 0.
1273, 4.000000, 3.200000, 0.
1274, 4.100000, 3.200000, 0.
1275, 4.200000, 3.200000, 0.
1276, 4.300000, 3.200000, 0.
1277, 4.400000, 3.200000, 0.
1278, 4.500000, 3.200000, 0.
1279, 4.600000, 3.200000, 0.
1280, 4.700000, 3.200000, 0.
1281, 4.800000, 3.200000, 0.
1282, 4.900000, 3.200000, 0.
1283, 5.000000, 3.200000, 0.
1284, 0.000000, 3.300000, 0.
1285, 0.200000, 3.300000, 0.
1286, 0.400000, 3.300000, 0.
1287, 0.600000, 3.300000, 0.
1288, 0.800000, 3.300000, 0.
1289, 1.000000, 3.300000, 0.
1290, 1.200000, 3.300000, 0.
1291, 1.400000, 3.300000, 0.
1292, 1.600000, 3.300000, 0.
1293, 1.800000, 3.300000, 0.
1294, 2.000000, 3.300000, 0.
1295, 2.200000, 3.300000, 0.
1296, 2.400000, 3.300000, 0.
1297, 2.600000, 3.300000, 0.
1298, 2.800000, 3.300000, 0.
1299, 3.000000, 3.300000, 0.
1300, 3.200000, 3.300000, 0.
1301, 3.400000, 3.300000, 0.
1302, 3.600000, 3.300000, 0.
1303, 3.800000, 3.300000, 0.
1304, 4.000000, 3.300000, 0.
1305, 4.200000, 3.300000, 0.
1306, 4.400000, 3.300000, 0.
1307, 4.600000, 3.300000, 0.
1308, 4.800000, 3.300000, 0.
1309, 5.000000, 3.300000, 0.
1310, 0.000000, 3.400000, 0.
1311, 0.100000, 3.400000, 0.
1312, 0.200000, 3.400000, 0.
1313, 0.300000, 3.400000, 0.
1314, 0.400000, 3.400000, 0.
1315, 0.500000, 3.400000, 0.
1316, 0.600000, 3.400000, 0.
1317, 0.700000, 3.400000, 0.
1318, 0.800000, 3.400000, 0.
1319, 0.900000, 3.400000, 0.
1320, 1.000000, 3.400000, 0.
1321, 1.100000, 3.400000, 0.
1322, 1.200000, 3.400000, 0.
1323, 1.300000, 3.400000, 0.
1324, 1.400000, 3.400000, 0.
1325, 1.500000, 3.400000, 0.
1326, 1.600000, 3.400000, 0.
1327, 1.700000, 3.400000, 0.
1328, 1.800000, 3.400000, 0.
1329, 1.900000, 3.400000, 0.
1330, 2.000000, 3.400000, 0.
1331, 2.100000, 3.400000, 0.
1332, 2.200000, 3.400000, 0.
1333, 2.300000, 3.400000, 0.
1334, 2.400000, 3.400000, 0.
1335, 2.500000, 3.400000, 0.
1336, 2.600000, 3.400000, 0.
1337, 2.700000, 3.400000, 0.
1338, 2.800000, 3.400000, 0.
1339, 2.900000, 3.400000, 0.
1340, 3.000000, 3.400000, 0.
1341, 3.100000, 3.400000, 0.
1342, 3.200000, 3.400000, 0.
1343, 3.300000, 3.400000, 0.
1344, 3.400000, 3.400000, 0.
1345, 3.500000, 3.400000, 0.
1346, 3.600000, 3.400000, 0.
1347, 3.700000, 3.400000, 0.
1348, 3.800000, 3.400000, 0.
1349, 3.900000, 3.400000, 0.
1350, 4.000000, 3.400000, 0.
1351, 4.100000, 3.400000, 0.
1352, 4.200000, 3.400000, 0.
1353, 4.300000, 3.400000, 0.
1354, 4.400000, 3.400000, 0.
1355, 4.500000, 3.400000, 0.
1356, 4.600000, 3.400000, 0.
1357, 4.700000, 3.400000, 0.
1358, 4.800000, 3.400000, 0.
1359, 4.900000, 3.400000, 0.
1360, 5.000000, 3.400000, 0.
1361, 0.000000, 3.500000, 0.
1362, 0.200000, 3.500000, 0.
1363, 0.400000, 3.500000, 0.
1364, 0.600000, 3.500000, 0.
1365, 0.800000, 3.500000, 0.
1366, 1.000000, 3.500000, 0.
1367, 1.200000, 3.500000, 0.
1368, 1.400000, 3.500000, 0.
1369, 1.600000, 3.500000, 0.
1370, 1.800000, 3.500000, 0.
1371, 2.000000, 3.500000, 0.
1372, 2.200000, 3.500000, 0.
1373, 2.400000, 3.500000, 0.
1374, 2.600000, 3.500000, 0.
1375, 2.800000, 3.500000, 0.
1376, 3.000000, 3.500000, 0.
1377, 3.200000, 3.500000, 0.
1378, 3.400000, 3.500000, 0.
1379, 3.600000, 3.500000, 0.
1380, 3.800000, 3.500000, 0.
1381, 4.000000, 3.500000, 0.
1382, 4.200000, 3.500000, 0.
1383, 4.400000, 3.500000, 0.
1384, 4.600000, 3.500000, 0.
1385, 4.800000, 3.500000, 0.
1386, 5.000000, 3.500000, 0.
1387, 0.000000, 3.600000, 0.
1388, 0.100000, 3.600000, 0.
1389, 0.200000, 3.600000, 0.
1390, 0.300000, 3.600000, 0.
1391, 0.400000, 3.600000, 0.
1392, 0.500000, 3.600000, 0.
1393, 0.600000, 3.600000, 0.
1394, 0.700000, 3.600000, 0.
1395, 0.800000, 3.600000, 0.
1396, 0.900000, 3.600000, 0.
1397, 1.000000, 3.600000, 0.
1398, 1.100000, 3.600000, 0.
1399, 1.200000, 3.600000, 0.
1400, 1.300000, 3.600000, 0.
1401, 1.400000, 3.600000, 0.
1402, 1.500000, 3.600000, 0.
1403, 1.600000, 3.600000, 0.
1404, 1.700000, 3.600000, 0.
1405, 1.800000, 3.600000, 0.
1406, 1.900000, 3.600000, 0.
1407, 2.000000, 3.600000, 0.
1408, 2.100000, 3.600000, 0.
1409, 2.200000, 3.600000, 0.
1410, 2.300000, 3.600000, 0.
1411, 2.400000, 3.600000, 0.
1412, 2.500000, 3.600000, 0.
1413, 2.600000, 3.600000, 0.
1414, 2.700000, 3.600000, 0.
1415, 2.800000, 3.600000, 0.
1416, 2.900000, 3.600000, 0.
1417, 3.000000, 3.600000, 0.
1418, 3.100000, 3.600000, 0.
1419, 3.200000, 3.600000, 0.
1420, 3.300000, 3.600000, 0.
1421, 3.400000, 3.600000, 0.
1422, 3.500000, 3.600000, 0.
1423, 3.600000, 3.600000, 0.
1424, 3.700000, 3.600000, 0.
1425, 3.800000, 3.600000, 0.
1426, 3.900000, 3.600000, 0.
1427, 4.000000, 3.600000, 0.
1428, 4.100000, 3.600000, 0.
1429, 4.200000, 3.600000, 0.
1430, 4.300000, 3.600000, 0.
1431, 4.400000, 3.600000, 0.
1432, 4.500000, 3.600000, 0.
1433, 4.600000, 3.600000, 0.
1434, 4.700000, 3.600000, 0.
1435, 4.800000, 3.600000, 0.
1436, 4.900000, 3.600000, 0.
1437, 5.000000, 3.600000, 0.
1438, 0.000000, 3.700000, 0.
1439, 0.200000, 3.700000, 0.
1440, 0.400000, 3.700000, 0.
1441, 0.600000, 3.700000, 0.
1442, 0.800000, 3.700000, 0.
1443, 1.000000, 3.700000, 0.
1444, 1.200000, 3.700000, 0.
1445, 1.400000, 3.700000, 0.
1446, 1.600000, 3.700000, 0.
1447, 1.800000, 3.700000, 0.
1448, 2.000000, 3.700000, 0.
1449, 2.200000, 3.700000, 0.
1450, 2.400000, 3.700000, 0.
1451, 2.600000, 3.700000, 0.
1452, 2.800000, 3.700000, 0.
1453, 3.000000, 3.700000, 0.
1454, 3.200000, 3.700000, 0.
1455, 3.400000, 3.700000, 0.
1456, 3.600000, 3.700000, 0.
1457, 3.800000, 3.700000, 0.
1458, 4.000000, 3.700000, 0.
1459, 4.200000, 3.700000, 0.
1460, 4.400000, 3.700000, 0.
1461, 4.600000, 3.700000, 0.
1462, 4.800000, 3.700000, 0.
1463, 5.000000, 3.700000, 0.
1464, 0.000000, 3.800000, 0.
1465, 0.100000, 3.800000, 0.
1466, 0.200000, 3.800000, 0.
1467, 0.300000, 3.800000, 0.
1468, 0.400000, 3.800000, 0.
1469, 0.500000, 3.800000, 0.
1470, 0.600000, 3.800000, 0.
1471, 0.700000, 3.800000, 0.
1472, 0.800000, 3.800000, 0.
1473, 0.900000, 3.800000, 0.
1474, 1.000000, 3.800000, 0.
1475, 1.100000, 3.800000, 0.
1476, 1.200000, 3.800000, 0.
1477, 1.300000, 3.800000, 0.
1478, 1.400000, 3.800000, 0.
1479, 1.500000, 3.800000, 0.
1480, 1.600000, 3.800000, 0.
1481, 1.700000, 3.800000, 0.
1482, 1.800000, 3.800000, 0.
1483, 1.900000, 3.800000, 0.
1484, 2.000000, 3.800000, 0.
1485, 2.100000, 3.800000, 0.
1486, 2.200000, 3.800000, 0.
1487, 2.300000, 3.800000, 0.
1488, 2.400000, 3.800000, 0.
1489, 2.500000, 3.800000, 0.
1490, 2.600000, 3.800000, 0.
1491, 2.700000, 3.800000, 0.
1492, 2.800000, 3.800000, 0.
1493, 2.900000, 3.800000, 0.
1494, 3.000000, 3.800000, 0.
1495, 3.100000, 3.800000, 0.
1496, 3.200000, 3.800000, 0.
1497, 3.300000, 3.800000, 0.
1498, 3.400000, 3.800000, 0.
1499, 3.500000, 3.800000, 0.
1500, 3.600000, 3.800000, 0.
1501, 3.700000, 3.800000, 0.
1502, 3.800000, 3.800000, 0.
1503, 3.900000, 3.800000, 0.
1504, 4.000000, 3.800000, 0.
1505, 4.100000, 3.800000, 0.
1506, 4.200000, 3.800000, 0.
1507, 4.300000, 3.800000, 0.
1508, 4.400000, 3.800000, 0.
1509, 4.500000, 3.800000, 0.
1510, 4.600000, 3.800000, 0.
1511, 4.700000, 3.800000, 0.
1512, 4.800000, 3.800000, 0.
1513, 4.900000, 3.800000, 0.
1514, 5.000000, 3.800000, 0.
1515, 0.000000, 3.900000, 0.
1516, 0.200000, 3.900000, 0.
1517, 0.400000, 3.900000, 0.
1518, 0.600000, 3.900000, 0.
1519, 0.800000, 3.900000, 0.
1520, 1.000000, 3.900000, 0.
1521, 1.200000, 3.900000, 0.
1522, 1.400000, 3.900000, 0.
1523, 1.600000, 3.900000, 0.
1524, 1.800000, 3.900000, 0.
1525, 2.000000, 3.900000, 0.
1526, 2.200000, 3.900000, 0.
1527, 2.400000, 3.900000, 0.
1528, 2.600000, 3.900000, 0.
1529, 2.800000, 3.900000, 0.
1530, 3.000000, 3.900000, 0.
1531, 3.200000, 3.900000, 0.
1532, 3.400000, 3.900000, 0.
1533, 3.600000, 3.900000, 0.
1534, 3.800000, 3.900000, 0.
1535, 4.000000, 3.900000, 0.
1536, 4.200000, 3.900000, 0.
1537, 4.400000, 3.900000, 0.
1538, 4.600000, 3.900000, 0.
1539, 4.800000, 3.900000, 0.
1540, 5.000000, 3.900000, 0.
1541, 0.000000, 4.000000, 0.
1542, 0.100000, 4.000000, 0.
1543, 0.200000, 4.000000, 0.
1544, 0.300000, 4.000000, 0.
1545, 0.400000, 4.000000, 0.
1546, 0.500000, 4.000000, 0.
1547, 0.600000, 4.000000, 0.
1548, 0.700000, 4.000000, 0.
1549, 0.800000, 4.000000, 0.
1550, 0.900000, 4.000000, 0.
1551, 1.000000, 4.000000, 0.
1552, 1.100000, 4.000000, 0.
1553, 1.200000, 4.000000, 0.
1554, 1.300000, 4.000000, 0.
1555, 1.400000, 4.000000, 0.
1556, 1.500000, 4.000000, 0.
1557, 1.600000, 4.000000, 0.
1558, 1.700000, 4.000000, 0.
1559, 1.800000, 4.000000, 0.
1560, 1.900000, 4.000000, 0.
1561, 2.000000, 4.000000, 0.
1562, 2.100000, 4.000000, 0.
1563, 2.200000, 4.000000, 0.
1564, 2.300000, 4.000000, 0.
1565, 2.400000, 4.000000, 0.
1566, 2.500000, 4.000000, 0.
1567, 2.600000, 4.000000, 0.
1568, 2.700000, 4.000000, 0.
1569, 2.800000, 4.000000, 0.
1570, 2.900000, 4.000000, 0.
1571, 3.000000, 4.000000, 0.
1572, 3.100000, 4.000000, 0.
1573, 3.200000, 4.000000, 0.
1574, 3.300000, 4.000000, 0.
1575, 3.400000, 4.000000, 0.
1576, 3.500000, 4.000000, 0.
1577, 3.600000, 4.000000, 0.
1578, 3.700000, 4.000000, 0.
1579, 3.800000, 4.000000, 0.
1580, 3.900000, 4.000000, 0.
1581, 4.000000, 4.000000, 0.
1582, 4.100000, 4.000000, 0.
1583, 4.200000, 4.000000, 0.
1584, 4.300000, 4.000000, 0.
1585, 4.400000, 4.000000, 0.
1586, 4.500000, 4.000000, 0.
1587, 4.600000, 4.000000, 0.
1588, 4.700000, 4.000000, 0.
1589, 4.800000, 4.000000, 0.
1590, 4.900000, 4.000000, 0.
1591, 5.000000, 4.000000, 0.
1592, 0.000000, 4.100000, 0.
1593, 0.200000, 4.100000, 0.
1594, 0.400000, 4.100000, 0.
1595, 0.600000, 4.100000, 0.
1596, 0.800000, 4.100000, 0.
1597, 1.000000, 4.100000, 0.
1598, 1.200000, 4.100000, 0.
1599, 1.400000, 4.100000, 0.
1600, 1.600000, 4.100000, 0.
1601, 1.800000, 4.100000, 0.
1602, 2.000000, 4.100000, 0.
1603, 2.200000, 4.100000, 0.
1604, 2.400000, 4.100000, 0.
1605, 2.600000, 4.100000, 0.
1606, 2.800000, 4.100000, 0.
1607, 3.000000, 4.100000, 0.
1608, 3.200000, 4.100000, 0.
1609, 3.400000, 4.100000, 0.
1610, 3.600000, 4.100000, 0.
1611, 3.800000, 4.100000, 0.
1612, 4.000000, 4.100000, 0.
1613, 4.200000, 4.100000, 0.
1614, 4.400000, 4.100000, 0.
1615, 4.600000, 4.100000, 0.
1616, 4.800000, 4.100000, 0.
1617, 5.000000, 4.100000, 0.
1618, 0.000000, 4.200000, 0.
1619, 0.100000, 4.200000, 0.
1620, 0.200000, 4.200000, 0.
1621, 0.300000, 4.200000, 0.
1622, 0.400000, 4.200000, 0.
1623, 0.500000, 4.200000, 0.
1624, 0.600000, 4.200000, 0.
1625, 0.700000, 4.200000, 0.
1626, 0.800000, 4.200000, 0.
1627, 0.900000, 4.200000, 0.
1628, 1.000000, 4.200000, 0.
1629, 1.100000, 4.200000, 0.
1630, 1.200000, 4.200000, 0.
1631, 1.300000, 4.200000, 0.
1632, 1.400000, 4.200000, 0.
1633, 1.500000, 4.200000, 0.
1634, 1.600000, 4.200000, 0.
1635, 1.700000, 4.200000, 0.
1636, 1.800000, 4.200000, 0.
1637, 1.900000, 4.200000, 0.
1638, 2.000000, 4.200000, 0.
1639, 2.100000, 4.200000, 0.
1640, 2.200000, 4.200000, 0.
1641, 2.300000, 4.200000, 0.
1642, 2.400000, 4.200000, 0.
1643, 2.500000, 4.200000, 0.
1644, 2.600000, 4.200000, 0.
1645, 2.700000, 4.200000, 0.
1646, 2.800000, 4.200000, 0.
1647, 2.900000, 4.200000, 0.
1648, 3.000000, 4.200000, 0.
1649, 3.100000, 4.200000, 0.
1650, 3.200000, 4.200000, 0.
1651, 3.300000, 4.200000, 0.
1652, 3.400000, 4.200000, 0.
1653, 3.500000, 4.200000, 0.
1654, 3.600000, 4.200000, 0.
1655, 3.700000, 4.200000, 0.
1656, 3.800000, 4.200000, 0.
1657, 3.900000, 4.200000, 0.
1658, 4.000000, 4.200000, 0.
1659, 4.100000, 4.200000, 0.
1660, 4.200000, 4.200000, 0.
1661, 4.300000, 4.200000, 0.
1662, 4.400000, 4.200000, 0.
1663, 4.500000, 4.200000, 0.
1664, 4.600000, 4.200000, 0.
1665, 4.700000, 4.200000, 0.
1666, 4.800000, 4.200000, 0.
1667, 4.900000, 4.200000, 0.
1668, 5.000000, 4.200000, 0.
1669, 0.000000, 4.300000, 0.
1670, 0.200000, 4.300000, 0.
1671, 0.400000, 4.300000, 0.
1672, 0.600000, 4.300000, 0.
1673, 0.800000, 4.300000, 0.
1674, 1.000000, 4.300000, 0.
1675, 1.200000, 4.300000, 0.
1676, 1.400000, 4.300000, 0.
1677, 1.600000, 4.300000, 0.
1678, 1.800000, 4.300000, 0.
1679, 2.000000, 4.300000, 0.
1680, 2.200000, 4.300000, 0.
1681, 2.400000, 4.300000, 0.
1682, 2.600000, 4.300000, 0.
1683, 2.800000, 4.300000, 0.
1684, 3.000000, 4.300000, 0.
1685, 3.200000, 4.300000, 0.
1686, 3.400000, 4.300000, 0.
1687, 3.600000, 4.300000, 0.
1688, 3.800000, 4.300000, 0.
1689, 4.000000, 4.300000, 0.
1690, 4.200000, 4.300000, 0.
1691, 4.400000, 4.300000, 0.
1692, 4.600000, 4.300000, 0.
1693, 4.800000, 4.300000, 0.
1694, 5.000000, 4.300000, 0.
1695, 0.000000, 4.400000, 0.
1696, 0.100000, 4.400000, 0.
1697, 0.200000, 4.400000, 0.
1698, 0.300000, 4.400000, 0.
1699, 0.400000, 4.400000, 0.
1700, 0.500000, 4.400000, 0.
1701, 0.600000, 4.400000, 0.
1702, 0.700000, 4.400000, 0.
1703, 0.800000, 4.400000, 0.
1704, 0.900000, 4.400000, 0.
1705, 1.000000, 4.400000, 0.
1706, 1.100000, 4.400000, 0.
1707, 1.200000, 4.400000, 0.
1708, 1.300000, 4.400000, 0.
1709, 1.400000, 4.400000, 0.
1710, 1.500000, 4.400000, 0.
1711, 1.600000, 4.400000, 0.
1712, 1.700000, 4.400000, 0.
1713, 1.800000, 4.400000, 0.
1714, 1.900000, 4.400000, 0.
1715, 2.000000, 4.400000, 0.
1716, 2.100000, 4.400000, 0.
1717, 2.200000, 4.400000, 0.
1718, 2.300000, 4.400000, 0.
1719, 2.400000, 4.400000, 0.
1720, 2.500000, 4.400000, 0.
1721, 2.600000, 4.400000, 0.
1722, 2.700000, 4.400000, 0.
1723, 2.800000, 4.400000, 0.
1724, 2.900000, 4.400000, 0.
1725, 3.000000, 4.400000, 0.
1726, 3.100000, 4.400000, 0.
1727, 3.200000, 4.400000, 0.
1728, 3.300000, 4.400000, 0.
1729, 3.400000, 4.400000, 0.
1730, 3.500000, 4.400000, 0.
1731, 3.600000, 4.400000, 0.
1732, 3.700000, 4.400000, 0.
1733, 3.800000, 4.400000, 0.
1734, 3.900000, 4.400000, 0.
1735, 4.000000, 4.400000, 0.
1736, 4.100000, 4.400000, 0.
1737, 4.200000, 4.400000, 0.
1738, 4.300000, 4.400000, 0.
1739, 4.400000, 4.400000, 0.
1740, 4.500000, 4.400000, 0.
1741, 4.600000, 4.400000, 0.
1742, 4.700000, 4.400000, 0.
1743, 4.800000, 4.400000, 0.
1744, 4.900000, 4.400000, 0.
1745, 5.000000, 4.400000, 0.
1746, 0.000000, 4.500000, 0.
1747, 0.200000, 4.500000, 0.
1748, 0.400000, 4.500000, 0.
1749, 0.600000, 4.500000, 0.
1750, 0.800000, 4.500000, 0.
1751, 1.000000, 4.500000, 0.
1752, 1.200000, 4.500000, 0.
1753, 1.400000, 4.500000, 0.
1754, 1.600000, 4.500000, 0.
1755, 1.800000, 4.500000, 0.
1756, 2.000000, 4.500000, 0.
1757, 2.200000, 4.500000, 0.
1758, 2.400000, 4.500000, 0.
1759, 2.600000, 4.500000, 0.
1760, 2.800000, 4.500000, 0.
1761, 3.000000, 4.500000, 0.
1762, 3.200000, 4.500000, 0.
1763, 3.400000, 4.500000, 0.
1764, 3.600000, 4.500000, 0.
1765, 3.800000, 4.500000, 0.
1766, 4.000000, 4.500000, 0.
1767, 4.200000, 4.500000, 0.
1768, 4.400000, 4.500000, 0.
1769, 4.600000, 4.500000, 0.
1770, 4.800000, 4.500000, 0.
1771, 5.000000, 4.500000, 0.
1772, 0.000000, 4.600000, 0.
1773, 0.100000, 4.600000, 0.
1774, 0.200000, 4.600000, 0.
1775, 0.300000, 4.600000, 0.
1776, 0.400000, 4.600000, 0.
1777, 0.500000, 4.600000, 0.
1778, 0.600000, 4.600000, 0.
1779, 0.700000, 4.600000, 0.
1780, 0.800000, 4.600000, 0.
1781, 0.900000, 4.600000, 0.
1782, 1.000000, 4.600000, 0.
1783, 1.100000, 4.600000, 0.
1784, 1.200000, 4.600000, 0.
1785, 1.300000, 4.600000, 0.
1786, 1.400000, 4.600000, 0.
1787, 1.500000, 4.600000, 0.
1788, 1.600000, 4.600000, 0.
1789, 1.700000, 4.600000, 0.
1790, 1.800000, 4.600000, 0.
1791, 1.900000, 4.600000, 0.
1792, 2.000000, 4.600000, 0.
1793, 2.100000, 4.600000, 0.
1794, 2.200000, 4.600000, 0.
1795, 2.300000, 4.600000, 0.
1796, 2.400000, 4.600000, 0.
1797, 2.500000, 4.600000, 0.
1798, 2.600000, 4.600000, 0.
1799, 2.700000, 4.600000, 0.
1800, 2.800000, 4.600000, 0.
1801, 2.900000, 4.600000, 0.
1802, 3.000000, 4.600000, 0.
1803, 3.100000, 4.600000, 0.
1804, 3.200000, 4.600000, 0.
1805, 3.300000, 4.600000, 0.
1806, 3.400000, 4.600000, 0.
1807, 3.500000, 4.600000, 0.
1808, 3.600000, 4.600000, 0.
1809, 3.700000, 4.600000, 0.
1810, 3.800000, 4.600000, 0.
1811, 3.900000, 4.600000, 0.
1812, 4.000000, 4.600000, 0.
1813, 4.100000, 4.600000, 0.
1814, 4.200000, 4.600000, 0.
1815, 4.300000, 4.600000, 0.
1816, 4.400000, 4.600000, 0.
1817, 4.500000, 4.600000, 0.
1818, 4.600000, 4.600000, 0.
1819, 4.700000, 4.600000, 0.
1820, 4.800000, 4.600000, 0.
1821, 4.900000, 4.600000, 0.
1822, 5.000000, 4.600000, 0.
1823, 0.000000, 4.700000, 0.
1824, 0.200000, 4.700000, 0.
1825, 0.400000, 4.700000, 0.
1826, 0.600000, 4.700000, 0.
1827, 0.800000, 4.700000, 0.
1828, 1.000000, 4.700000, 0.
1829, 1.200000, 4.700000, 0.
1830, 1.400000, 4.700000, 0.
1831, 1.600000, 4.700000, 0.
1832, 1.800000, 4.700000, 0.
1833, 2.000000, 4.700000, 0.
1834, 2.200000, 4.700000, 0.
1835, 2.400000, 4.700000, 0.
1836, 2.600000, 4.700000, 0.
1837, 2.800000, 4.700000, 0.
1838, 3.000000, 4.700000, 0.
1839, 3.200000, 4.700000, 0.
1840, 3.400000, 4.700000, 0.
1841, 3.600000, 4.700000, 0.
1842, 3.800000, 4.700000, 0.
1843, 4.000000, 4.700000, 0.
1844, 4.200000, 4.700000, 0.
1845, 4.400000, 4.700000, 0.
1846, 4.600000, 4.700000, 0.
1847, 4.800000, 4.700000, 0.
1848, 5.000000, 4.700000, 0.
1849, 0.000000, 4.800000, 0.
1850, 0.100000, 4.800000, 0.
1851, 0.200000, 4.800000, 0.
1852, 0.300000, 4.800000, 0.
1853, 0.400000, 4.800000, 0.
1854, 0.500000, 4.800000, 0.
1855, 0.600000, 4.800000, 0.
1856, 0.700000, 4.800000, 0.
1857, 0.800000, 4.800000, 0.
1858, 0.900000, 4.800000, 0.
1859, 1.000000, 4.800000, 0.
1860, 1.100000, 4.800000, 0.
1861, 1.200000, 4.800000, 0.
1862, 1.300000, 4.800000, 0.
1863, 1.400000, 4.800000, 0.
1864, 1.500000, 4.800000, 0.
1865, 1.600000, 4.800000, 0.
1866, 1.700000, 4.800000, 0.
1867, 1.800000, 4.800000, 0.
1868, 1.900000, 4.800000, 0.
1869, 2.000000, 4.800000, 0.
1870, 2.100000, 4.800000, 0.
1871, 2.200000, 4.800000, 0.
1872, 2.300000, 4.800000, 0.
1873, 2.400000, 4.800000, 0.
1874, 2.500000, 4.800000, 0.
1875, 2.600000, 4.800000, 0.
1876, 2.700000, 4.800000, 0.
1877, 2.800000, 4.800000, 0.
1878, 2.900000, 4.800000, 0.
1879, 3.000000, 4.800000, 0.
1880, 3.100000, 4.800000, 0.
1881, 3.200000, 4.800000, 0.
1882, 3.300000, 4.800000, 0.
1883, 3.400000, 4.800000, 0.
1884, 3.500000, 4.800000, 0.
1885, 3.600000, 4.800000, 0.
1886, 3.700000, 4.800000, 0.
1887, 3.800000, 4.800000, 0.
1888, 3.900000, 4.800000, 0.
1889, 4.000000, 4.800000, 0.
1890, 4.100000, 4.800000, 0.
1891, 4.200000, 4.800000, 0.
1892, 4.300000, 4.800000, 0.
1893, 4.400000, 4.800000, 0.
1894, 4.500000, 4.800000, 0.
1895, 4.600000, 4.800000, 0.
1896, 4.700000, 4.800000, 0.
1897, 4.800000, 4.800000, 0.
1898, 4.900000, 4.800000, 0.
1899, 5.000000, 4.800000, 0.
1900, 0.000000, 4.900000, 0.
1901, 0.200000, 4.900000, 0.
1902, 0.400000, 4.900000, 0.
1903, 0.600000, 4.900000, 0.
1904, 0.800000, 4.900000, 0.
1905, 1.000000, 4.900000, 0.
1906, 1.200000, 4.900000, 0.
1907, 1.400000, 4.900000, 0.
1908, 1.600000, 4.900000, 0.
1909, 1.800000, 4.900000, 0.
1910, 2.000000, 4.900000, 0.
1911, 2.200000, 4.900000, 0.
1912, 2.400000, 4.900000, 0.
1913, 2.600000, 4.900000, 0.
1914, 2.800000, 4.900000, 0.
1915, 3.000000, 4.900000, 0.
1916, 3.200000, 4.900000, 0.
1917, 3.400000, 4.900000, 0.
1918, 3.600000, 4.900000, 0.
1919, 3.800000, 4.900000, 0.
1920, 4.000000, 4.900000, 0.
1921, 4.200000, 4.900000, 0.
1922, 4.400000, 4.900000, 0.
1923, 4.600000, 4.900000, 0.
1924, 4.800000, 4.900000, 0.
1925, 5.000000, 4.900000, 0.
1926, 0.000000, 5.000000, 0.
1927, 0.100000, 5.000000, 0.
1928, 0.200000, 5.000000, 0.
1929, 0.300000, 5.000000, 0.
1930, 0.400000, 5.000000, 0.
1931, 0.500000, 5.000000, 0.
1932, 0.600000, 5.000000, 0.
1933, 0.700000, 5.000000, 0.
1934, 0.800000, 5.000000, 0.
1935, 0.900000, 5.000000, 0.
1936, 1.000000, 5.000000, 0.
1937, 1.100000, 5.000000, 0.
1938, 1.200000, 5.000000, 0.
1939, 1.300000, 5.000000, 0.
1940, 1.400000, 5.000000, 0.
1941, 1.500000, 5.000000, 0.
1942, 1.600000, 5.000000, 0.
1943, 1.700000, 5.000000, 0.
1944, 1.800000, 5.000000, 0.
1945, 1.900000, 5.000000, 0.
1946, 2.000000, 5.000000, 0.
1947, 2.100000, 5.000000, 0.
1948, 2.200000, 5.000000, 0.
1949, 2.300000, 5.000000, 0.
1950, 2.400000, 5.000000, 0.
1951, 2.500000, 5.000000, 0.
1952, 2.600000, 5.000000, 0.
1953, 2.700000, 5.000000, 0.
1954, 2.800000, 5.000000, 0.
1955, 2.900000, 5.000000, 0.
1956, 3.000000, 5.000000, 0.
1957, 3.100000, 5.000000, 0.
1958, 3.200000, 5.000000, 0.
1959, 3.300000, 5.000000, 0.
1960, 3.400000, 5.000000, 0.
1961, 3.500000, 5.000000, 0.
1962, 3.600000, 5.000000, 0.
1963, 3.700000, 5.000000, 0.
1964, 3.800000, 5.000000, 0.
1965, 3.900000, 5.000000, 0.
1966, 4.000000, 5.000000, 0.
1967, 4.100000, 5.000000, 0.
1968, 4.200000, 5.000000, 0.
1969, 4.300000, 5.000000, 0.
1970, 4.400000, 5.000000, 0.
1971, 4.500000, 5.000000, 0.
1972, 4.600000, 5.000000, 0.
1973, 4.700000, 5.000000, 0.
1974, 4.800000, 5.000000, 0.
1975, 4.900000, 5.000000, 0.
1976, 5.000000, 5.000000, 0.
*Element, type=S8R
1, 1, 3, 80, 78, 2, 53, 79, 52
2, 3, 5, 82, 80, 4, 54, 81, 53
3, 5, 7, 84, 82, 6, 55, 83, 54
4, 7, 9, 86, 84, 8, 56, 85, 55
5, 9, 11, 88, 86, 10, 57, 87, 56
6, 11, 13, 90, 88, 12, 58, 89, 57
7, 13, 15, 92, 90, 14, 59, 91, 58
8, 15, 17, 94, 92, 16, 60, 93, 59
9, 17, 19, 96, 94, 18, 61, 95, 60
10, 19, 21, 98, 96, 20, 62, 97, 61
11, 21, 23, 100, 98, 22, 63, 99, 62
12, 23, 25, 102, 100, 24, 64, 101, 63
13, 25, 27, 104, 102, 26, 65, 103, 64
14, 27, 29, 106, 104, 28, 66, 105, 65
15, 29, 31, 108, 106, 30, 67, 107, 66
16, 31, 33, 110, 108, 32, 68, 109, 67
17, 33, 35, 112, 110, 34, 69, 111, 68
18, 35, 37, 114, 112, 36, 70, 113, 69
19, 37, 39, 116, 114, 38, 71, 115, 70
20, 39, 41, 118, 116, 40, 72, 117, 71
21, 41, 43, 120, 118, 42, 73, 119, 72
22, 43, 45, 122, 120, 44, 74, 121, 73
23, 45, 47, 124, 122, 46, 75, 123, 74
24, 47, 49, 126, 124, 48, 76, 125, 75
25, 49, 51, 128, 126, 50, 77, 127, 76
26, 78, 80, 157, 155, 79, 130, 156, 129
27, 80, 82, 159, 157, 81, 131, 158, 130
28, 82, 84, 161, 159, 83, 132, 160, 131
29, 84, 86, 163, 161, 85, 133, 162, 132
30, 86, 88, 165, 163, 87, 134, 164, 133
31, 88, 90, 167, 165, 89, 135, 166, 134
32, 90, 92, 169, 167, 91, 136, 168, 135
33, 92, 94, 171, 169, 93, 137, 170, 136
34, 94, 96, 173, 171, 95, 138, 172, 137
35, 96, 98, 175, 173, 97, 139, 174, 138
36, 98, 100, 177, 175, 99, 140, 176, 139
37, 100, 102, 179, 177, 101, 141, 178, 140
38, 102, 104, 181, 179, 103, 142, 180, 141
39, 104, 106, 183, 181, 105, 143, 182, 142
40, 106, 108, 185, 183, 107, 144, 184, 143
41, 108, 110, 187, 185, 109, 145, 186, 144
42, 110, 112, 189, 187, 111, 146, 188, 145
43, 112, 114, 191, 189, 113, 147, 190, 146
44, 114, 116, 193, 191, 115, 148, 192, 147
45, 116, 118, 195, 193, 117, 149, 194, 148
46, 118, 120, 197, 195, 119, 150, 196, 149
47, 120, 122, 199, 197, 121, 151, 198, 150
48, 122, 124, 201, 199, 123, 152, 200, 151
49, 124, 126, 203, 201, 125, 153, 202, 152
50, 126, 128, 205, 203, 127, 154, 204, 153
51, 155, 157, 234, 232, 156, 207, 233, 206
52, 157, 159, 236, 234, 158, 208, 235, 207
53, 159, 161, 238, 236, 160, 209, 237, 208
54, 161, 163, 240, 238, 162, 210, 239, 209
55, 163, 165, 242, 240, 164, 211, 241, 210
56, 165, 167, 244, 242, 166, 212, 243, 211
57, 167, 169, 246, 244, 168, 213, 245, 212
58, 169, 171, 248, 246, 170, 214, 247, 213
59, 171, 173, 250, 248, 172, 215, 249, 214
60, 173, 175, 252, 250, 174, 216, 251, 215
61, 175, 177, 254, 252, 176, 217, 253, 216
62, 177, 179, 256, 254, 178, 218, 255, 217
63, 179, 181, 258, 256, 180, 219, 257, 218
64, 181, 183, 260, 258, 182, 220, 259, 219
65, 183, 185, 262, 260, 184, 221, 261, 220
66, 185, 187, 264, 262, 186, 222, 263, 221
67, 187, 189, 266, 264, 188, 223, 265, 222
68, 189, 191, 268, 266, 190, 224, 267, 223
69, 191, 193, 270, 268, 192, 225, 269, 224
70, 193, 195, 272, 270, 194, 226, 271, 225
71, 195, 197, 274, 272, 196, 227, 273, 226
72, 197, 199, 276, 274, 198, 228, 275, 227
73, 199, 201, 278, 276, 200, 229, 277, 228
74, 201, 203, 280, 278, 202, 230, 279, 229
75, 203, 205, 282, 280, 204, 231, 281, 230
76, 232, 234, 311, 309, 233, 284, 310, 283
77, 234, 236, 313, 311, 235, 285, 312, 284
78, 236, 238, 315, 313, 237, 286, 314, 285
79, 238, 240, 317, 315, 239, 287, 316, 286
80, 240, 242, 319, 317, 241, 288, 318, 287
81, 242, 244, 321, 319, 243, 289, 320, 288
82, 244, 246, 323, 321, 245, 290, 322, 289
83, 246, 248, 325, 323, 247, 291, 324, 290
84, 248, 250, 327, 325, 249, 292, 326, 291
85, 250, 252, 329, 327, 251, 293, 328, 292
86, 252, 254, 331, 329, 253, 294, 330, 293
87, 254, 256, 333, 331, 255, 295, 332, 294
88, 256, 258, 335, 333, 257, 296, 334, 295
89, 258, 260, 337, 335, 259, 297, 336, 296
90, 260, 262, 339, 337, 261, 298, 338, 297
91, 262, 264, 341, 339, 263, 299, 340, 298
92, 264, 266, 343, 341, 265, 300, 342, 299
93, 266, 268, 345, 343, 267, 301, 344, 300
94, 268, 270, 347, 345, 269, 302, 346, 301
95, 270, 272, 349, 347, 271, 303, 348, 302
96, 272, 274, 351, 349, 273, 304, 350, 303
97, 274, 276, 353, 351, 275, 305, 352, 304
98, 276, 278, 355, 353, 277, 306, 354, 305
99, 278, 280, 357, 355, 279, 307, 356, 306
100, 280, 282, 359, 357, 281, 308, 358, 307
101, 309, 311, 388, 386, 310, 361, 387, 360
102, 311, 313, 390, 388, 312, 362, 389, 361
103, 313, 315, 392, 390, 314, 363, 391, 362
104, 315, 317, 394, 392, 316, 364, 393, 363
105, 317, 319, 396, 394, 318, 365, 395, 364
106, 319, 321, 398, 396, 320, 366, 397, 365
107, 321, 323, 400, 398, 322, 367, 399, 366
108, 323, 325, 402, 400, 324, 368, 401, 367
109, 325, 327, 404, 402, 326, 369, 403, 368
110, 327, 329, 406, 404, 328, 370, 405, 369
111, 329, 331, 408, 406, 330, 371, 407, 370
112, 331, 333, 410, 408, 332, 372, 409, 371
113, 333, 335, 412, 410, 334, 373, 411, 372
114, 335, 337, 414, 412, 336, 374, 413, 373
115, 337, 339, 416, 414, 338, 375, 415, 374
116, 339, 341, 418, 416, 340, 376, 417, 375
117, 341, 343, 420, 418, 342, 377, 419, 376
118, 343, 345, 422, 420, 344, 378, 421, 377
119, 345, 347, 424, 422, 346, 379, 423, 378
120, 347, 349, 426, 424, 348, 380, 425, 379
121, 349, 351, 428, 426, 350, 381, 427, 380
122, 351, 353, 430, 428, 352, 382, 429, 381
123, 353, 355, 432, 430, 354, 383, 431, 382
124, 355, 357, 434, 432, 356, 384, 433, 383
125, 357, 359, 436, 434, 358, 385, 435, 384
126, 386, 388, 465, 463, 387, 438, 464, 437
127, 388, 390, 467, 465, 389, 439, 466, 438
128, 390, 392, 469, 467, 391, 440, 468, 439
129, 392, 394, 471, 469, 393, 441, 470, 440
130, 394, 396, 473, 471, 395, 442, 472, 441
131, 396, 398, 475, 473, 397, 443, 474, 442
132, 398, 400, 477, 475, 399, 444, 476, 443
133, 400, 402, 479, 477, 401, 445, 478, 444
134, 402, 404, 481, 479, 403, 446, 480, 445
135, 404, 406, 483, 481, 405, 447, 482, 446
136, 406, 408, 485, 483, 407, 448, 484, 447
137, 408, 410, 487, 485, 409, 449, 486, 448
138, 410, 412, 489, 487, 411, 450, 488, 449
139, 412, 414, 491, 489, 413, 451, 490, 450
140, 414, 416, 493, 491, 415, 452, 492, 451
141, 416, 418, 495, 493, 417, 453, 494, 452
142, 418, 420, 497, 495, 419, 454, 496, 453
143, 420, 422, 499, 497, 421, 455, 498, 454
144, 422, 424, 501, 499, 423, 456, 500, 455
145, 424, 426, 503, 501, 425, 457, 502, 456
146, 426, 428, 505, 503, 427, 458, 504, 457
147, 428, 430, 507, 505, 429, 459, 506, 458
148, 430, 432, 509, 507, 431, 460, 508, 459
149, 432, 434, 511, 509, 433, 461, 510, 460
150, 434, 436, 513, 511, 435, 462, 512, 461
151, 463, 465, 542, 540, 464, 515, 541, 514
152, 465, 467, 544, 542, 466, 516, 543, 515
153, 467, 469, 546, 544, 468, 517, 545, 516
154, 469, 471, 548, 546, 470, 518, 547, 517
155, 471, 473, 550, 548, 472, 519, 549, 518
156, 473, 475, 552, 550, 474, 520, 551, 519
157, 475, 477, 554, 552, 476, 521, 553, 520
158, 477, 479, 556, 554, 478, 522, 555, 521
159, 479, 481, 558, 556, 480, 523, 557, 522
160, 481, 483, 560, 558, 482, 524, 559, 523
161, 483, 485, 562, 560, 484, 525, 561, 524
162, 485, 487, 564, 562, 486, 526, 563, 525
163, 487, 489, 566, 564, 488, 527, 565, 526
164, 489, 491, 568, 566, 490, 528, 567, 527
165, 491, 493, 570, 568, 492, 529, 569, 528
166, 493, 495, 572, 570, 494, 530, 571, 529
167, 495, 497, 574, 572, 496, 531, 573, 530
168, 497, 499, 576, 574, 498, 532, 575, 531
169, 499, 501, 578, 576, 500, 533, 577, 532
170, 501, 503, 580, 578, 502, 534, 579, 533
171, 503, 505, 582, 580, 504, 535, 581, 534
172, 505, 507, 584, 582, 506, 536, 583, 535
173, 507, 509, 586, 584, 508, 537, 585, 536
174, 509, 511, 588, 586, 510, 538, 587, 537
175, 511, 513, 590, 588, 512, 539, 589, 538
176, 540, 542, 619, 617, 541, 592, 618, 591
177, 542, 544, 621, 619, 543, 593, 620, 592
178, 544, 546, 623, 621, 545, 594, 622, 593
179, 546, 548, 625, 623, 547, 595, 624, 594
180, 548, 550, 627, 625, 549, 596, 626, 595
181, 550, 552, 629, 627, 551, 597, 628, 596
182, 552, 554, 631, 629, 553, 598, 630, 597
183, 554, 556, 633, 631, 555, 599, 632, 598
184, 556, 558, 635, 633, 557, 600, 634, 599
185, 558, 560, 637, 635, 559, 601, 636, 600
186, 560, 562, 639, 637, 561, 602, 638, 601
187, 562, 564, 641, 639, 563, 603, 640, 602
188, 564, 566, 643, 641, 565, 604, 642, 603
189, 566, 568, 645, 643, 567, 605, 644, 604
190, 568, 570, 647, 645, 569, 606, 646, 605
191, 570, 572, 649, 647, 571, 607, 648, 606
192, 572, 574, 651, 649, 573, 608, 650, 607
193, 574, 576, 653, 651, 575, 609, 652, 608
194, 576, 578, 655, 653, 577, 610, 654, 609
195, 578, 580, 657, 655, 579, 611, 656, 610
196, 580, 582, 659, 657, 581, 612, 658, 611
197, 582, 584, 661, 659, 583, 613, 660, 612
198, 584, 586, 663, 661, 585, 614, 662, 613
199, 586, 588, 665, 663, 587, 615, 664, 614
200, 588, 590, 667, 665, 589, 616, 666, 615
201, 617, 619, 696, 694, 618, 669, 695, 668
202, 619, 621, 698, 696, 620, 670, 697, 669
203, 621, 623, 700, 698, 622, 671, 699, 670
204, 623, 625, 702, 700, 624, 672, 701, 671
205, 625, 627, 704, 702, 626, 673, 703, 672
206, 627, 629, 706, 704, 628, 674, 705, 673
207, 629, 631, 708, 706, 630, 675, 707, 674
208, 631, 633, 710, 708, 632, 676, 709, 675
209, 633, 635, 712, 710, 634, 677, 711, 676
210, 635, 637, 714, 712, 636, 678, 713, 677
211, 637, 639, 716, 714, 638, 679, 715, 678
212, 639, 641, 718, 716, 640, 680, 717, 679
213, 641, 643, 720, 718, 642, 681, 719, 680
214, 643, 645, 722, 720, 644, 682, 721, 681
215, 645, 647, 724, 722, 646, 683, 723, 682
216, 647, 649, 726, 724, 648, 684, 725, 683
217, 649, 651, 728, 726, 650, 685, 727, 684
218, 651, 653, 730, 728, 652, 686, 729, 685
219, 653, 655, 732, 730, 654, 687, 731, 686
220, 655, 657, 734, 732, 656, 688, 733, 687
221, 657, 659, 736, 734, 658, 689, 735, 688
222, 659, 661, 738, 736, 660, 690, 737, 689
223, 661, 663, 740, 738, 662, 691, 739, 690
224, 663, 665, 742, 740, 664, 692, 741, 691
225, 665, 667, 744, 742, 666, 693, 743, 692
226, 694, 696, 773, 771, 695, 746, 772, 745
227, 696, 698, 775, 773, 697, 747, 774, 746
228, 698, 700, 777, 775, 699, 748, 776, 747
229, 700, 702, 779, 777, 701, 749, 778, 748
230, 702, 704, 781, 779, 703, 750, 780, 749
231, 704, 706, 783, 781, 705, 751, 782, 750
232, 706, 708, 785, 783, 707, 752, 784, 751
233, 708, 710, 787, 785, 709, 753, 786, 752
234, 710, 712, 789, 787, 711, 754, 788, 753
235, 712, 714, 791, 789, 713, 755, 790, 754
236, 714, 716, 793, 791, 715, 756, 792, 755
237, 716, 718, 795, 793, 717, 757, 794, 756
238, 718, 720, 797, 795, 719, 758, 796, 757
239, 720, 722, 799, 797, 721, 759, 798, 758
240, 722, 724, 801, 799, 723, 760, 800, 759
241, 724, 726, 803, 801, 725, 761, 802, 760
242, 726, 728, 805, 803, 727, 762, 804, 761
243, 728, 730, 807, 805, 729, 763, 806, 762
244, 730, 732, 809, 807, 731, 764, 808, 763
245, 732, 734, 811, 809, 733, 765, 810, 764
246, 734, 736, 813, 811, 735, 766, 812, 765
247, 736, 738, 815, 813, 737, 767, 814, 766
248, 738, 740, 817, 815, 739, 768, 816, 767
249, 740, 742, 819, 817, 741, 769, 818, 768
250, 742, 744, 821, 819, 743, 770, 820, 769
251, 771, 773, 850, 848, 772, 823, 849, 822
252, 773, 775, 852, 850, 774, 824, 851, 823
253, 775, 777, 854, 852, 776, 825, 853, 824
254, 777, 779, 856, 854, 778, 826, 855, 825
255, 779, 781, 858, 856, 780, 827, 857, 826
256, 781, 783, 860, 858, 782, 828, 859, 827
257, 783, 785, 862, 860, 784, 829, 861, 828
258, 785, 787, 864, 862, 786, 830, 863, 829
259, 787, 789, 866, 864, 788, 831, 865, 830
260, 789, 791, 868, 866, 790, 832, 867, 831
261, 791, 793, 870, 868, 792, 833, 869, 832
262, 793, 795, 872, 870, 794, 834, 871, 833
263, 795, 797, 874, 872, 796, 835, 873, 834
264, 797, 799, 876, 874, 798, 836, 875, 835
265, 799, 801, 878, 876, 800, 837, 877, 836
266, 801, 803, 880, 878, 802, 838, 879, 837
267, 803, 805, 882, 880, 804, 839, 881, 838
268, 805, 807, 884, 882, 806, 840, 883, 839
269, 807, 809, 886, 884, 808, 841, 885, 840
270, 809, 811, 888, 886, 810, 842, 887, 841
271, 811, 813, 890, 888, 812, 843, 889, 842
272, 813, 815, 892, 890, 814, 844, 891, 843
273, 815, 817, 894, 892, 816, 845, 893, 844
274, 817, 819, 896, 894, 818, 846, 895, 845
275, 819, 821, 898, 896, 820, 847, 897, 846
276, 848, 850, 927, 925, 849, 900, 926, 899
277, 850, 852, 929, 927, 851, 901, 928, 900
278, 852, 854, 931, 929, 853, 902, 930, 901
279, 854, 856, 933, 931, 855, 903, 932, 902
280, 856, 858, 935, 933, 857, 904, 934, 903
281, 858, 860, 937, 935, 859, 905, 936, 904
282, 860, 862, 939, 937, 861, 906, 938, 905
283, 862, 864, 941, 939, 863, 907, 940, 906
284, 864, 866, 943, 941, 865, 908, 942, 907
285, 866, 868, 945, 943, 867, 909, 944, 908
286, 868, 870, 947, 945, 869, 910, 946, 909
287, 870, 872, 949, 947, 871, 911, 948, 910
288, 872, 874, 951, 949, 873, 912, 950, 911
289, 874, 876, 953, 951, 875, 913, 952, 912
290, 876, 878, 955, 953, 877, 914, 954, 913
291, 878, 880, 957, 955, 879, 915, 956, 914
292, 880, 882, 959, 957, 881, 916, 958, 915
293, 882, 884, 961, 959, 883, 917, 960, 916
294, 884, 886, 963, 961, 885, 918, 962, 917
295, 886, 888, 965, 963, 887, 919, 964, 918
296, 888, 890, 967, 965, 889, 920, 966, 919
297, 890, 892, 969, 967, 891, 921, 968, 920
298, 892, 894, 971, 969, 893, 922, 970, 921
299, 894, 896, 973, 971, 895, 923, 972, 922
300, 896, 898, 975, 973, 897, 924, 974, 923
301, 925, 927, 1004, 1002, 926, 977, 1003, 976
302, 927, 929, 1006, 1004, 928, 978, 1005, 977
303, 929, 931, 1008, 1006, 930, 979, 1007, 978
304, 931, 933, 1010, 1008, 932, 980, 1009, 979
305, 933, 935, 1012, 1010, 934, 981, 1011, 980
306, 935, 937, 1014, 1012, 936, 982, 1013, 981
307, 937, 939, 1016, 1014, 938, 983, 1015, 982
308, 939, 941, 1018, 1016, 940, 984, 1017, 983
309, 941, 943, 1020, 1018, 942, 985, 1019, 984
310, 943, 945, 1022, 1020, 944, 986, 1021, 985
311, 945, 947, 1024, 1022, 946, 987, 1023, 986
312, 947, 949, 1026, 1024, 948, 988, 1025, 987
313, 949, 951, 1028, 1026, 950, 989, 1027, 988
314, 951, 953, 1030, 1028, 952, 990, 1029, 989
315, 953, 955, 1032, 1030, 954, 991, 1031, 990
316, 955, 957, 1034, 1032, 956, 992, 1033, 991
317, 957, 959, 1036, 1034, 958, 993, 1035, 992
318, 959, 961, 1038, 1036, 960, 994, 1037, 993
319, 961, 963, 1040, 1038, 962, 995, 1039, 994
320, 963, 965, 1042, 1040, 964, 996, 1041, 995
321, 965, 967, 1044, 1042, 966, 997, 1043, 996
322, 967, 969, 1046, 1044, 968, 998, 1045, 997
323, 969, 971, 1048, 1046, 970, 999, 1047, 998
324, 971, 973, 1050, 1048, 972, 1000, 1049, 999
325, 973, 975, 1052, 1050, 974, 1001, 1051, 1000
326, 1002, 1004, 1081, 1079, 1003, 1054, 1080, 1053
327, 1004, 1006, 1083, 1081, 1005, 1055, 1082, 1054
328, 1006, 1008, 1085, 1083, 1007, 1056, 1084, 1055
329, 1008, 1010, 1087, 1085, 1009, 1057, 1086, 1056
330, 1010, 1012, 1089, 1087, 1011, 1058, 1088, 1057
331, 1012, 1014, 1091, 1089, 1013, 1059, 1090, 1058
332, 1014, 1016, 1093, 1091, 1015, 1060, 1092, 1059
333, 1016, 1018, 1095, 1093, 1017, 1061, 1094, 1060
334, 1018, 1020, 1097, 1095, 1019, 1062, 1096, 1061
335, 1020, 1022, 1099, 1097, 1021, 1063, 1098, 1062
336, 1022, 1024, 1101, 1099, 1023, 1064, 1100, 1063
337, 1024, 1026, 1103, 1101, 1025, 1065, 1102, 1064
338, 1026, 1028, 1105, 1103, 1027, 1066, 1104, 1065
339, 1028, 1030, 1107, 1105, 1029, 1067, 1106, 1066
340, 1030, 1032, 1109, 1107, 1031, 1068, 1108, 1067
341, 1032, 1034, 1111, 1109, 1033, 1069, 1110, 1068
342, 1034, 1036, 1113, 1111, 1035, 1070, 1112, 1069
343, 1036, 1038, 1115, 1113, 1037, 1071, 1114, 1070
344, 1038, 1040, 1117, 1115, 1039, 1072, 1116, 1071
345, 1040, 1042, 1119, 1117, 1041, 1073, 1118, 1072
346, 1042, 1044, 1121, 1119, 1043, 1074, 1120, 1073
347, 1044, 1046, 1123, 1121, 1045, 1075, 1122, 1074
348, 1046, 1048, 1125, 1123, 1047, 1076, 1124, 1075
349, 1048, 1050, 1127, 1125, 1049, 1077, 1126, 1076
350, 1050, 1052, 1129, 1127, 1051, 1078, 1128, 1077
351, 1079, 1081, 1158, 1156, 1080, 1131, 1157, 1130
352, 1081, 1083, 1160, 1158, 1082, 1132, 1159, 1131
353, 1083, 1085, 1162, 1160, 1084, 1133, 1161, 1132
354, 1085, 1087, 1164, 1162, 1086, 1134, 1163, 1133
355, 1087, 1089, 1166, 1164, 1088, 1135, 1165, 1134
356, 1089, 1091, 1168, 1166, 1090, 1136, 1167, 1135
357, 1091, 1093, 1170, 1168, 1092, 1137, 1169, 1136
358, 1093, 1095, 1172, 1170, 1094, 1138, 1171, 1137
359, 1095, 1097, 1174, 1172, 1096, 1139, 1173, 1138
360, 1097, 1099, 1176, 1174, 1098, 1140, 1175, 1139
361, 1099, 1101, 1178, 1176, 1100, 1141, 1177, 1140
362, 1101, 1103, 1180, 1178, 1102, 1142, 1179, 1141
363, 1103, 1105, 1182, 1180, 1104, 1143, 1181, 1142
364, 1105, 1107, 1184, 1182, 1106, 1144, 1183, 1143
365, 1107, 1109, 1186, 1184, 1108, 1145, 1185, 1144
366, 1109, 1111, 1188, 1186, 1110, 1146, 1187, 1145
367, 1111, 1113, 1190, 1188, 1112, 1147, 1189, 1146
368, 1113, 1115, 1192, 1190, 1114, 1148, 1191, 1147
369, 1115, 1117, 1194, 1192, 1116, 1149, 1193, 1148
370, 1117, 1119, 1196, 1194, 1118, 1150, 1195, 1149
371, 1119, 1121, 1198, 1196, 1120, 1151, 1197, 1150
372, 1121, 1123, 1200, 1198, 1122, 1152, 1199, 1151
373, 1123, 1125, 1202, 1200, 1124, 1153, 1201, 1152
374, 1125, 1127, 1204, 1202, 1126, 1154, 1203, 1153
375, 1127, 1129, 1206, 1204, 1128, 1155, 1205, 1154
376, 1156, 1158, 1235, 1233, 1157, 1208, 1234, 1207
377, 1158, 1160, 1237, 1235, 1159, 1209, 1236, 1208
378, 1160, 1162, 1239, 1237, 1161, 1210, 1238, 1209
379, 1162, 1164, 1241, 1239, 1163, 1211, 1240, 1210
380, 1164, 1166, 1243, 1241, 1165, 1212, 1242, 1211
381, 1166, 1168, 1245, 1243, 1167, 1213, 1244, 1212
382, 1168, 1170, 1247, 1245, 1169, 1214, 1246, 1213
383, 1170, 1172, 1249, 1247, 1171, 1215, 1248, 1214
384, 1172, 1174, 1251, 1249, 1173, 1216, 1250, 1215
385, 1174, 1176, 1253, 1251, 1175, 1217, 1252, 1216
386, 1176, 1178, 1255, 1253, 1177, 1218, 1254, 1217
387, 1178, 1180, 1257, 1255, 1179, 1219, 1256, 1218
388, 1180, 1182, 1259, 1257, 1181, 1220, 1258, 1219
389, 1182, 1184, 1261, 1259, 1183, 1221, 1260, 1220
390, 1184, 1186, 1263, 1261, 1185, 1222, 1262, 1221
391, 1186, 1188, 1265, 1263, 1187, 1223, 1264, 1222
392, 1188, 1190, 1267, 1265, 1189, 1224, 1266, 1223
393, 1190, 1192, 1269, 1267, 1191, 1225, 1268, 1224
394, 1192, 1194, 1271, 1269, 1193, 1226, 1270, 1225
395, 1194, 1196, 1273, 1271, 1195, 1227, 1272, 1226
396, 1196, 1198, 1275, 1273, 1197, 1228, 1274, 1227
397, 1198, 1200, 1277, 1275, 1199, 1229, 1276, 1228
398, 1200, 1202, 1279, 1277, 1201, 1230, 1278, 1229
399, 1202, 1204, 1281, 1279, 1203, 1231, 1280, 1230
400, 1204, 1206, 1283, 1281, 1205, 1232, 1282, 1231
401, 1233, 1235, 1312, 1310, 1234, 1285, 1311, 1284
402, 1235, 1237, 1314, 1312, 1236, 1286, 1313, 1285
403, 1237, 1239, 1316, 1314, 1238, 1287, 1315, 1286
404, 1239, 1241, 1318, 1316, 1240, 1288, 1317, 1287
405, 1241, 1243, 1320, 1318, 1242, 1289, 1319, 1288
406, 1243, 1245, 1322, 1320, 1244, 1290, 1321, 1289
407, 1245, 1247, 1324, 1322, 1246, 1291, 1323, 1290
408, 1247, 1249, 1326, 1324, 1248, 1292, 1325, 1291
409, 1249, 1251, 1328, 1326, 1250, 1293, 1327, 1292
410, 1251, 1253, 1330, 1328, 1252, 1294, 1329, 1293
411, 1253, 1255, 1332, 1330, 1254, 1295, 1331, 1294
412, 1255, 1257, 1334, 1332, 1256, 1296, 1333, 1295
413, 1257, 1259, 1336, 1334, 1258, 1297, 1335, 1296
414, 1259, 1261, 1338, 1336, 1260, 1298, 1337, 1297
415, 1261, 1263, 1340, 1338, 1262, 1299, 1339, 1298
416, 1263, 1265, 1342, 1340, 1264, 1300, 1341, 1299
417, 1265, 1267, 1344, 1342, 1266, 1301, 1343, 1300
418, 1267, 1269, 1346, 1344, 1268, 1302, 1345, 1301
419, 1269, 1271, 1348, 1346, 1270, 1303, 1347, 1302
420, 1271, 1273, 1350, 1348, 1272, 1304, 1349, 1303
421, 1273, 1275, 1352, 1350, 1274, 1305, 1351, 1304
422, 1275, 1277, 1354, 1352, 1276, 1306, 1353, 1305
423, 1277, 1279, 1356, 1354, 1278, 1307, 1355, 1306
424, 1279, 1281, 1358, 1356, 1280, 1308, 1357, 1307
425, 1281, 1283, 1360, 1358, 1282, 1309, 1359, 1308
426, 1310, 1312, 1389, 1387, 1311, 1362, 1388, 1361
427, 1312, 1314, 1391, 1389, 1313, 1363, 1390, 1362
428, 1314, 1316, 1393, 1391, 1315, 1364, 1392, 1363
429, 1316, 1318, 1395, 1393, 1317, 1365, 1394, 1364
430, 1318, 1320, 1397, 1395, 1319, 1366, 1396, 1365
431, 1320, 1322, 1399, 1397, 1321, 1367, 1398, 1366
432, 1322, 1324, 1401, 1399, 1323, 1368, 1400, 1367
433, 1324, 1326, 1403, 1401, 1325, 1369, 1402, 1368
434, 1326, 1328, 1405, 1403, 1327, 1370, 1404, 1369
435, 1328, 1330, 1407, 1405, 1329, 1371, 1406, 1370
436, 1330, 1332, 1409, 1407, 1331, 1372, 1408, 1371
437, 1332, 1334, 1411, 1409, 1333, 1373, 1410, 1372
438, 1334, 1336, 1413, 1411, 1335, 1374, 1412, 1373
439, 1336, 1338, 1415, 1413, 1337, 1375, 1414, 1374
440, 1338, 1340, 1417, 1415, 1339, 1376, 1416, 1375
441, 1340, 1342, 1419, 1417, 1341, 1377, 1418, 1376
442, 1342, 1344, 1421, 1419, 1343, 1378, 1420, 1377
443, 1344, 1346, 1423, 1421, 1345, 1379, 1422, 1378
444, 1346, 1348, 1425, 1423, 1347, 1380, 1424, 1379
445, 1348, 1350, 1427, 1425, 1349, 1381, 1426, 1380
446, 1350, 1352, 1429, 1427, 1351, 1382, 1428, 1381
447, 1352, 1354, 1431, 1429, 1353, 1383, 1430, 1382
448, 1354, 1356, 1433, 1431, 1355, 1384, 1432, 1383
449, 1356, 1358, 1435, 1433, 1357, 1385, 1434, 1384
450, 1358, 1360, 1437, 1435, 1359, 1386, 1436, 1385
451, 1387, 1389, 1466, 1464, 1388, 1439, 1465, 1438
452, 1389, 1391, 1468, 1466, 1390, 1440, 1467, 1439
453, 1391, 1393, 1470, 1468, 1392, 1441, 1469, 1440
454, 1393, 1395, 1472, 1470, 1394, 1442, 1471, 1441
455, 1395, 1397, 1474, 1472, 1396, 1443, 1473, 1442
456, 1397, 1399, 1476, 1474, 1398, 1444, 1475, 1443
457, 1399, 1401, 1478, 1476, 1400, 1445, 1477, 1444
458, 1401, 1403, 1480, 1478, 1402, 1446, 1479, 1445
459, 1403, 1405, 1482, 1480, 1404, 1447, 1481, 1446
460, 1405, 1407, 1484, 1482, 1406, 1448, 1483, 1447
461, 1407, 1409, 1486, 1484, 1408, 1449, 1485, 1448
462, 1409, 1411, 1488, 1486, 1410, 1450, 1487, 1449
463, 1411, 1413, 1490, 1488, 1412, 1451, 1489, 1450
464, 1413, 1415, 1492, 1490, 1414, 1452, 1491, 1451
465, 1415, 1417, 1494, 1492, 1416, 1453, 1493, 1452
466, 1417, 1419, 1496, 1494, 1418, 1454, 1495, 1453
467, 1419, 1421, 1498, 1496, 1420, 1455, 1497, 1454
468, 1421, 1423, 1500, 1498, 1422, 1456, 1499, 1455
469, 1423, 1425, 1502, 1500, 1424, 1457, 1501, 1456
470, 1425, 1427, 1504, 1502, 1426, 1458, 1503, 1457
471, 1427, 1429, 1506, 1504, 1428, 1459, 1505, 1458
472, 1429, 1431, 1508, 1506, 1430, 1460, 1507, 1459
473, 1431, 1433, 1510, 1508, 1432, 1461, 1509, 1460
474, 1433, 1435, 1512, 1510, 1434, 1462, 1511, 1461
475, 1435, 1437, 1514, 1512, 1436, 1463, 1513, 1462
476, 1464, 1466, 1543, 1541, 1465, 1516, 1542, 1515
477, 1466, 1468, 1545, 1543, 1467, 1517, 1544, 1516
478, 1468, 1470, 1547, 1545, 1469, 1518, 1546, 1517
479, 1470, 1472, 1549, 1547, 1471, 1519, 1548, 1518
480, 1472, 1474, 1551, 1549, 1473, 1520, 1550, 1519
481, 1474, 1476, 1553, 1551, 1475, 1521, 1552, 1520
482, 1476, 1478, 1555, 1553, 1477, 1522, 1554, 1521
483, 1478, 1480, 1557, 1555, 1479, 1523, 1556, 1522
484, 1480, 1482, 1559, 1557, 1481, 1524, 1558, 1523
485, 1482, 1484, 1561, 1559, 1483, 1525, 1560, 1524
486, 1484, 1486, 1563, 1561, 1485, 1526, 1562, 1525
487, 1486, 1488, 1565, 1563, 1487, 1527, 1564, 1526
488, 1488, 1490, 1567, 1565, 1489, 1528, 1566, 1527
489, 1490, 1492, 1569, 1567, 1491, 1529, 1568, 1528
490, 1492, 1494, 1571, 1569, 1493, 1530, 1570, 1529
491, 1494, 1496, 1573, 1571, 1495, 1531, 1572, 1530
492, 1496, 1498, 1575, 1573, 1497, 1532, 1574, 1531
493, 1498, 1500, 1577, 1575, 1499, 1533, 1576, 1532
494, 1500, 1502, 1579, 1577, 1501, 1534, 1578, 1533
495, 1502, 1504, 1581, 1579, 1503, 1535, 1580, 1534
496, 1504, 1506, 1583, 1581, 1505, 1536, 1582, 1535
497, 1506, 1508, 1585, 1583, 1507, 1537, 1584, 1536
498, 1508, 1510, 1587, 1585, 1509, 1538, 1586, 1537
499, 1510, 1512, 1589, 1587, 1511, 1539, 1588, 1538
500, 1512, 1514, 1591, 1589, 1513, 1540, 1590, 1539
501, 1541, 1543, 1620, 1618, 1542, 1593, 1619, 1592
502, 1543, 1545, 1622, 1620, 1544, 1594, 1621, 1593
503, 1545, 1547, 1624, 1622, 1546, 1595, 1623, 1594
504, 1547, 1549, 1626, 1624, 1548, 1596, 1625, 1595
505, 1549, 1551, 1628, 1626, 1550, 1597, 1627, 1596
506, 1551, 1553, 1630, 1628, 1552, 1598, 1629, 1597
507, 1553, 1555, 1632, 1630, 1554, 1599, 1631, 1598
508, 1555, 1557, 1634, 1632, 1556, 1600, 1633, 1599
509, 1557, 1559, 1636, 1634, 1558, 1601, 1635, 1600
510, 1559, 1561, 1638, 1636, 1560, 1602, 1637, 1601
511, 1561, 1563, 1640, 1638, 1562, 1603, 1639, 1602
512, 1563, 1565, 1642, 1640, 1564, 1604, 1641, 1603
513, 1565, 1567, 1644, 1642, 1566, 1605, 1643, 1604
514, 1567, 1569, 1646, 1644, 1568, 1606, 1645, 1605
515, 1569, 1571, 1648, 1646, 1570, 1607, 1647, 1606
516, 1571, 1573, 1650, 1648, 1572, 1608, 1649, 1607
517, 1573, 1575, 1652, 1650, 1574, 1609, 1651, 1608
518, 1575, 1577, 1654, 1652, 1576, 1610, 1653, 1609
519, 1577, 1579, 1656, 1654, 1578, 1611, 1655, 1610
520, 1579, 1581, 1658, 1656, 1580, 1612, 1657, 1611
521, 1581, 1583, 1660, 1658, 1582, 1613, 1659, 1612
522, 1583, 1585, 1662, 1660, 1584, 1614, 1661, 1613
523, 1585, 1587, 1664, 1662, 1586, 1615, 1663, 1614
524, 1587, 1589, 1666, 1664, 1588, 1616, 1665, 1615
525, 1589, 1591, 1668, 1666, 1590, 1617, 1667, 1616
526, 1618, 1620, 1697, 1695, 1619, 1670, 1696, 1669
527, 1620, 1622, 1699, 1697, 1621, 1671, 1698, 1670
528, 1622, 1624, 1701, 1699, 1623, 1672, 1700, 1671
529, 1624, 1626, 1703, 1701, 1625, 1673, 1702, 1672
530, 1626, 1628, 1705, 1703, 1627, 1674, 1704, 1673
531, 1628, 1630, 1707, 1705, 1629, 1675, 1706, 1674
532, 1630, 1632, 1709, 1707, 1631, 1676, 1708, 1675
533, 1632, 1634, 1711, 1709, 1633, 1677, 1710, 1676
534, 1634, 1636, 1713, 1711, 1635, 1678, 1712, 1677
535, 1636, 1638, 1715, 1713, 1637, 1679, 1714, 1678
536, 1638, 1640, 1717, 1715, 1639, 1680, 1716, 1679
537, 1640, 1642, 1719, 1717, 1641, 1681, 1718, 1680
538, 1642, 1644, 1721, 1719, 1643, 1682, 1720, 1681
539, 1644, 1646, 1723, 1721, 1645, 1683, 1722, 1682
540, 1646, 1648, 1725, 1723, 1647, 1684, 1724, 1683
541, 1648, 1650, 1727, 1725, 1649, 1685, 1726, 1684
542, 1650, 1652, 1729, 1727, 1651, 1686, 1728, 1685
543, 1652, 1654, 1731, 1729, 1653, 1687, 1730, 1686
544, 1654, 1656, 1733, 1731, 1655, 1688, 1732, 1687
545, 1656, 1658, 1735, 1733, 1657, 1689, 1734, 1688
546, 1658, 1660, 1737, 1735, 1659, 1690, 1736, 1689
547, 1660, 1662, 1739, 1737, 1661, 1691, 1738, 1690
548, 1662, 1664, 1741, 1739, 1663, 1692, 1740, 1691
549, 1664, 1666, 1743, 1741, 1665, 1693, 1742, 1692
550, 1666, 1668, 1745, 1743, 1667, 1694, 1744, 1693
551, 1695, 1697, 1774, 1772, 1696, 1747, 1773, 1746
552, 1697, 1699, 1776, 1774, 1698, 1748, 1775, 1747
553, 1699, 1701, 1778, 1776, 1700, 1749, 1777, 1748
554, 1701, 1703, 1780, 1778, 1702, 1750, 1779, 1749
555, 1703, 1705, 1782, 1780, 1704, 1751, 1781, 1750
556, 1705, 1707, 1784, 1782, 1706, 1752, 1783, 1751
557, 1707, 1709, 1786, 1784, 1708, 1753, 1785, 1752
558, 1709, 1711, 1788, 1786, 1710, 1754, 1787, 1753
559, 1711, 1713, 1790, 1788, 1712, 1755, 1789, 1754
560, 1713, 1715, 1792, 1790, 1714, 1756, 1791, 1755
561, 1715, 1717, 1794, 1792, 1716, 1757, 1793, 1756
562, 1717, 1719, 1796, 1794, 1718, 1758, 1795, 1757
563, 1719, 1721, 1798, 1796, 1720, 1759, 1797, 1758
564, 1721, 1723, 1800, 1798, 1722, 1760, 1799, 1759
565, 1723, 1725, 1802, 1800, 1724, 1761, 1801, 1760
566, 1725, 1727, 1804, 1802, 1726, 1762, 1803, 1761
567, 1727, 1729, 1806, 1804, 1728, 1763, 1805, 1762
568, 1729, 1731, 1808, 1806, 1730, 1764, 1807, 1763
569, 1731, 1733, 1810, 1808, 1732, 1765, 1809, 1764
570, 1733, 1735, 1812, 1810, 1734, 1766, 1811, 1765
571, 1735, 1737, 1814, 1812, 1736, 1767, 1813, 1766
572, 1737, 1739, 1816, 1814, 1738, 1768, 1815, 1767
573, 1739, 1741, 1818, 1816, 1740, 1769, 1817, 1768
574, 1741, 1743, 1820, 1818, 1742, 1770, 1819, 1769
575, 1743, 1745, 1822, 1820, 1744, 1771, 1821, 1770
576, 1772, 1774, 1851, 1849, 1773, 1824, 1850, 1823
577, 1774, 1776, 1853, 1851, 1775, 1825, 1852, 1824
578, 1776, 1778, 1855, 1853, 1777, 1826, 1854, 1825
579, 1778, 1780, 1857, 1855, 1779, 1827, 1856, 1826
580, 1780, 1782, 1859, 1857, 1781, 1828, 1858, 1827
581, 1782, 1784, 1861, 1859, 1783, 1829, 1860, 1828
582, 1784, 1786, 1863, 1861, 1785, 1830, 1862, 1829
583, 1786, 1788, 1865, 1863, 1787, 1831, 1864, 1830
584, 1788, 1790, 1867, 1865, 1789, 1832, 1866, 1831
585, 1790, 1792, 1869, 1867, 1791, 1833, 1868, 1832
586, 1792, 1794, 1871, 1869, 1793, 1834, 1870, 1833
587, 1794, 1796, 1873, 1871, 1795, 1835, 1872, 1834
588, 1796, 1798, 1875, 1873, 1797, 1836, 1874, 1835
589, 1798, 1800, 1877, 1875, 1799, 1837, 1876, 1836
590, 1800, 1802, 1879, 1877, 1801, 1838, 1878, 1837
591, 1802, 1804, 1881, 1879, 1803, 1839, 1880, 1838
592, 1804, 1806, 1883, 1881, 1805, 1840, 1882, 1839
593, 1806, 1808, 1885, 1883, 1807, 1841, 1884, 1840
594, 1808, 1810, 1887, 1885, 1809, 1842, 1886, 1841
595, 1810, 1812, 1889, 1887, 1811, 1843, 1888, 1842
596, 1812, 1814, 1891, 1889, 1813, 1844, 1890, 1843
597, 1814, 1816, 1893, 1891, 1815, 1845, 1892, 1844
598, 1816, 1818, 1895, 1893, 1817, 1846, 1894, 1845
599, 1818, 1820, 1897, 1895, 1819, 1847, 1896, 1846
600, 1820, 1822, 1899, 1897, 1821, 1848, 1898, 1847
601, 1849, 1851, 1928, 1926, 1850, 1901, 1927, 1900
602, 1851, 1853, 1930, 1928, 1852, 1902, 1929, 1901
603, 1853, 1855, 1932, 1930, 1854, 1903, 1931, 1902
604, 1855, 1857, 1934, 1932, 1856, 1904, 1933, 1903
605, 1857, 1859, 1936, 1934, 1858, 1905, 1935, 1904
606, 1859, 1861, 1938, 1936, 1860, 1906, 1937, 1905
607, 1861, 1863, 1940, 1938, 1862, 1907, 1939, 1906
608, 1863, 1865, 1942, 1940, 1864, 1908, 1941, 1907
609, 1865, 1867, 1944, 1942, 1866, 1909, 1943, 1908
610, 1867, 1869, 1946, 1944, 1868, 1910, 1945, 1909
611, 1869, 1871, 1948, 1946, 1870, 1911, 1947, 1910
612, 1871, 1873, 1950, 1948, 1872, 1912, 1949, 1911
613, 1873, 1875, 1952, 1950, 1874, 1913, 1951, 1912
614, 1875, 1877, 1954, 1952, 1876, 1914, 1953, 1913
615, 1877, 1879, 1956, 1954, 1878, 1915, 1955, 1914
616, 1879, 1881, 1958, 1956, 1880, 1916, 1957, 1915
617, 1881, 1883, 1960, 1958, 1882, 1917, 1959, 1916
618, 1883, 1885, 1962, 1960, 1884, 1918, 1961, 1917
619, 1885, 1887, 1964, 1962, 1886, 1919, 1963, 1918
620, 1887, 1889, 1966, 1964, 1888, 1920, 1965, 1919
621, 1889, 1891, 1968, 1966, 1890, 1921, 1967, 1920
622, 1891, 1893, 1970, 1968, 1892, 1922, 1969, 1921
623, 1893, 1895, 1972, 1970, 1894, 1923, 1971, 1922
624, 1895, 1897, 1974, 1972, 1896, 1924, 1973, 1923
625, 1897, 1899, 1976, 1974, 1898, 1925, 1975, 1924
*Elset, elset=ALL, generate
1, 625, 1
*Nset, nset=EDGE
1, 2, 3, 4, 5, 6, 7, 8, 9, 10, 11, 12, 13, 14, 15, 16
17, 18, 19, 20, 21, 22, 23, 24, 25, 26, 27, 28, 29, 30, 31, 32
33, 34, 35, 36, 37, 38, 39, 40, 41, 42, 43, 44, 45, 46, 47, 48
49, 50, 51, 52, 77, 78, 128, 129, 154, 155, 205, 206, 231, 232, 282, 283
308, 309, 359, 360, 385, 386, 436, 437, 462, 463, 513, 514, 539, 540, 590, 591
616, 617, 667, 668, 693, 694, 744, 745, 770, 771, 821, 822, 847, 848, 898, 899
924, 925, 975, 976, 1001, 1002, 1052, 1053, 1078, 1079, 1129, 1130, 1155, 1156, 1206, 1207
1232, 1233, 1283, 1284, 1309, 1310, 1360, 1361, 1386, 1387, 1437, 1438, 1463, 1464, 1514, 1515
1540, 1541, 1591, 1592, 1617, 1618, 1668, 1669, 1694, 1695, 1745, 1746, 1771, 1772, 1822, 1823
1848, 1849, 1899, 1900, 1925, 1926, 1927, 1928, 1929, 1930, 1931, 1932, 1933, 1934, 1935, 1936
1937, 1938, 1939, 1940, 1941, 1942, 1943, 1944, 1945, 1946, 1947, 1948, 1949, 1950, 1951, 1952
1953, 1954, 1955, 1956, 1957, 1958, 1959, 1960, 1961, 1962, 1963, 1964, 1965, 1966, 1967, 1968
1969, 1970, 1971, 1972, 1973, 1974, 1975, 1976
*Shell General Section, elset=ALL
8.7488930e+03, 4.3705748e+03, 8.1810088e+03, 1.0568602e+01, 2.2914875e+01, 4.6176685e+03, 1.3277745e+01, 1.3518982e+01
-5.0553081e+00, 1.8790973e+03, 1.3520265e+01, 1.4996463e+01, -6.2767395e+00, 1.2137987e+03, 1.8157129e+03, -4.9804167e+00
-6.8882218e+00, 1.3050513e+01, 3.6437498e+00, 6.0781774e+00, 1.3046312e+03
*Transverse Shear Stiffness
1.3855794e+02, 1.1467662e+03, 1.3147104e+00
*Boundary
EDGE, ENCASTRE
*Step, name=STATIC, nlgeom=NO
*Static
*Dload
ALL, P, -1.0000
*Output, field
*Node Output
U, UR
*Element Output, directions=YES
SF, SM
*End Step
