*Heading
** AR5 ABDG8 equivalent plate of preovios_try.out -- 5 x 5 S8R (cell-matched: one element per 3-D SG cell), clamped all round, LINEAR
** reference surface = the SG mid-plane, z = 0
** results -> abaqus/AR5_S8R/ (NOT AR5/: build_ff's ABDG* glob would pick these up)
*Preprint, echo=NO, model=NO, history=NO, contact=NO
*Node
1, 0.000000, 0.000000, 0.
2, 0.500000, 0.000000, 0.
3, 1.000000, 0.000000, 0.
4, 1.500000, 0.000000, 0.
5, 2.000000, 0.000000, 0.
6, 2.500000, 0.000000, 0.
7, 3.000000, 0.000000, 0.
8, 3.500000, 0.000000, 0.
9, 4.000000, 0.000000, 0.
10, 4.500000, 0.000000, 0.
11, 5.000000, 0.000000, 0.
12, 0.000000, 0.500000, 0.
13, 1.000000, 0.500000, 0.
14, 2.000000, 0.500000, 0.
15, 3.000000, 0.500000, 0.
16, 4.000000, 0.500000, 0.
17, 5.000000, 0.500000, 0.
18, 0.000000, 1.000000, 0.
19, 0.500000, 1.000000, 0.
20, 1.000000, 1.000000, 0.
21, 1.500000, 1.000000, 0.
22, 2.000000, 1.000000, 0.
23, 2.500000, 1.000000, 0.
24, 3.000000, 1.000000, 0.
25, 3.500000, 1.000000, 0.
26, 4.000000, 1.000000, 0.
27, 4.500000, 1.000000, 0.
28, 5.000000, 1.000000, 0.
29, 0.000000, 1.500000, 0.
30, 1.000000, 1.500000, 0.
31, 2.000000, 1.500000, 0.
32, 3.000000, 1.500000, 0.
33, 4.000000, 1.500000, 0.
34, 5.000000, 1.500000, 0.
35, 0.000000, 2.000000, 0.
36, 0.500000, 2.000000, 0.
37, 1.000000, 2.000000, 0.
38, 1.500000, 2.000000, 0.
39, 2.000000, 2.000000, 0.
40, 2.500000, 2.000000, 0.
41, 3.000000, 2.000000, 0.
42, 3.500000, 2.000000, 0.
43, 4.000000, 2.000000, 0.
44, 4.500000, 2.000000, 0.
45, 5.000000, 2.000000, 0.
46, 0.000000, 2.500000, 0.
47, 1.000000, 2.500000, 0.
48, 2.000000, 2.500000, 0.
49, 3.000000, 2.500000, 0.
50, 4.000000, 2.500000, 0.
51, 5.000000, 2.500000, 0.
52, 0.000000, 3.000000, 0.
53, 0.500000, 3.000000, 0.
54, 1.000000, 3.000000, 0.
55, 1.500000, 3.000000, 0.
56, 2.000000, 3.000000, 0.
57, 2.500000, 3.000000, 0.
58, 3.000000, 3.000000, 0.
59, 3.500000, 3.000000, 0.
60, 4.000000, 3.000000, 0.
61, 4.500000, 3.000000, 0.
62, 5.000000, 3.000000, 0.
63, 0.000000, 3.500000, 0.
64, 1.000000, 3.500000, 0.
65, 2.000000, 3.500000, 0.
66, 3.000000, 3.500000, 0.
67, 4.000000, 3.500000, 0.
68, 5.000000, 3.500000, 0.
69, 0.000000, 4.000000, 0.
70, 0.500000, 4.000000, 0.
71, 1.000000, 4.000000, 0.
72, 1.500000, 4.000000, 0.
73, 2.000000, 4.000000, 0.
74, 2.500000, 4.000000, 0.
75, 3.000000, 4.000000, 0.
76, 3.500000, 4.000000, 0.
77, 4.000000, 4.000000, 0.
78, 4.500000, 4.000000, 0.
79, 5.000000, 4.000000, 0.
80, 0.000000, 4.500000, 0.
81, 1.000000, 4.500000, 0.
82, 2.000000, 4.500000, 0.
83, 3.000000, 4.500000, 0.
84, 4.000000, 4.500000, 0.
85, 5.000000, 4.500000, 0.
86, 0.000000, 5.000000, 0.
87, 0.500000, 5.000000, 0.
88, 1.000000, 5.000000, 0.
89, 1.500000, 5.000000, 0.
90, 2.000000, 5.000000, 0.
91, 2.500000, 5.000000, 0.
92, 3.000000, 5.000000, 0.
93, 3.500000, 5.000000, 0.
94, 4.000000, 5.000000, 0.
95, 4.500000, 5.000000, 0.
96, 5.000000, 5.000000, 0.
*Element, type=S8R
1, 1, 3, 20, 18, 2, 13, 19, 12
2, 3, 5, 22, 20, 4, 14, 21, 13
3, 5, 7, 24, 22, 6, 15, 23, 14
4, 7, 9, 26, 24, 8, 16, 25, 15
5, 9, 11, 28, 26, 10, 17, 27, 16
6, 18, 20, 37, 35, 19, 30, 36, 29
7, 20, 22, 39, 37, 21, 31, 38, 30
8, 22, 24, 41, 39, 23, 32, 40, 31
9, 24, 26, 43, 41, 25, 33, 42, 32
10, 26, 28, 45, 43, 27, 34, 44, 33
11, 35, 37, 54, 52, 36, 47, 53, 46
12, 37, 39, 56, 54, 38, 48, 55, 47
13, 39, 41, 58, 56, 40, 49, 57, 48
14, 41, 43, 60, 58, 42, 50, 59, 49
15, 43, 45, 62, 60, 44, 51, 61, 50
16, 52, 54, 71, 69, 53, 64, 70, 63
17, 54, 56, 73, 71, 55, 65, 72, 64
18, 56, 58, 75, 73, 57, 66, 74, 65
19, 58, 60, 77, 75, 59, 67, 76, 66
20, 60, 62, 79, 77, 61, 68, 78, 67
21, 69, 71, 88, 86, 70, 81, 87, 80
22, 71, 73, 90, 88, 72, 82, 89, 81
23, 73, 75, 92, 90, 74, 83, 91, 82
24, 75, 77, 94, 92, 76, 84, 93, 83
25, 77, 79, 96, 94, 78, 85, 95, 84
*Elset, elset=ALL, generate
1, 25, 1
*Nset, nset=EDGE
1, 2, 3, 4, 5, 6, 7, 8, 9, 10, 11, 12, 17, 18, 28, 29
34, 35, 45, 46, 51, 52, 62, 63, 68, 69, 79, 80, 85, 86, 87, 88
89, 90, 91, 92, 93, 94, 95, 96
*Shell General Section, elset=ALL
8.7488930e+03, 4.3705748e+03, 8.1810088e+03, 1.0568602e+01, 2.2914875e+01, 4.6176685e+03, 1.3277745e+01, 1.3518982e+01
-5.0553081e+00, 1.8790973e+03, 1.3520265e+01, 1.4996463e+01, -6.2767395e+00, 1.2137987e+03, 1.8157129e+03, -4.9804167e+00
-6.8882218e+00, 1.3050513e+01, 3.6437498e+00, 6.0781774e+00, 1.3046312e+03
*Transverse Shear Stiffness
1.3855794e+02, 1.1467662e+03, 1.3147104e+00
*Boundary
EDGE, ENCASTRE
*Step, name=STATIC, nlgeom=NO
*Static
*Dload
ALL, P, -1.0000
*Output, field
*Node Output
U, UR, RF, RM
*Element Output, directions=YES
SF, SM, SE
*End Step
