*HEADING
Yu-2003 sec. 6.2 dynamics SOLID benchmark: [90/0] plate, corner mass
** C3D8I 24 x 24 x 8, mass+load at the mid-thickness corner node
** EL PRINT S is in the PLY LOCAL frame (ORIENTATION) -- post rotates
*NODE
1, 0.00000000, 0.00000000, 0.00000000
2, 0.00166667, 0.00000000, 0.00000000
3, 0.00333333, 0.00000000, 0.00000000
4, 0.00500000, 0.00000000, 0.00000000
5, 0.00666667, 0.00000000, 0.00000000
6, 0.00833333, 0.00000000, 0.00000000
7, 0.01000000, 0.00000000, 0.00000000
8, 0.01166667, 0.00000000, 0.00000000
9, 0.01333333, 0.00000000, 0.00000000
10, 0.01500000, 0.00000000, 0.00000000
11, 0.01666667, 0.00000000, 0.00000000
12, 0.01833333, 0.00000000, 0.00000000
13, 0.02000000, 0.00000000, 0.00000000
14, 0.02166667, 0.00000000, 0.00000000
15, 0.02333333, 0.00000000, 0.00000000
16, 0.02500000, 0.00000000, 0.00000000
17, 0.02666667, 0.00000000, 0.00000000
18, 0.02833333, 0.00000000, 0.00000000
19, 0.03000000, 0.00000000, 0.00000000
20, 0.03166667, 0.00000000, 0.00000000
21, 0.03333333, 0.00000000, 0.00000000
22, 0.03500000, 0.00000000, 0.00000000
23, 0.03666667, 0.00000000, 0.00000000
24, 0.03833333, 0.00000000, 0.00000000
25, 0.04000000, 0.00000000, 0.00000000
26, 0.00000000, 0.00166667, 0.00000000
27, 0.00166667, 0.00166667, 0.00000000
28, 0.00333333, 0.00166667, 0.00000000
29, 0.00500000, 0.00166667, 0.00000000
30, 0.00666667, 0.00166667, 0.00000000
31, 0.00833333, 0.00166667, 0.00000000
32, 0.01000000, 0.00166667, 0.00000000
33, 0.01166667, 0.00166667, 0.00000000
34, 0.01333333, 0.00166667, 0.00000000
35, 0.01500000, 0.00166667, 0.00000000
36, 0.01666667, 0.00166667, 0.00000000
37, 0.01833333, 0.00166667, 0.00000000
38, 0.02000000, 0.00166667, 0.00000000
39, 0.02166667, 0.00166667, 0.00000000
40, 0.02333333, 0.00166667, 0.00000000
41, 0.02500000, 0.00166667, 0.00000000
42, 0.02666667, 0.00166667, 0.00000000
43, 0.02833333, 0.00166667, 0.00000000
44, 0.03000000, 0.00166667, 0.00000000
45, 0.03166667, 0.00166667, 0.00000000
46, 0.03333333, 0.00166667, 0.00000000
47, 0.03500000, 0.00166667, 0.00000000
48, 0.03666667, 0.00166667, 0.00000000
49, 0.03833333, 0.00166667, 0.00000000
50, 0.04000000, 0.00166667, 0.00000000
51, 0.00000000, 0.00333333, 0.00000000
52, 0.00166667, 0.00333333, 0.00000000
53, 0.00333333, 0.00333333, 0.00000000
54, 0.00500000, 0.00333333, 0.00000000
55, 0.00666667, 0.00333333, 0.00000000
56, 0.00833333, 0.00333333, 0.00000000
57, 0.01000000, 0.00333333, 0.00000000
58, 0.01166667, 0.00333333, 0.00000000
59, 0.01333333, 0.00333333, 0.00000000
60, 0.01500000, 0.00333333, 0.00000000
61, 0.01666667, 0.00333333, 0.00000000
62, 0.01833333, 0.00333333, 0.00000000
63, 0.02000000, 0.00333333, 0.00000000
64, 0.02166667, 0.00333333, 0.00000000
65, 0.02333333, 0.00333333, 0.00000000
66, 0.02500000, 0.00333333, 0.00000000
67, 0.02666667, 0.00333333, 0.00000000
68, 0.02833333, 0.00333333, 0.00000000
69, 0.03000000, 0.00333333, 0.00000000
70, 0.03166667, 0.00333333, 0.00000000
71, 0.03333333, 0.00333333, 0.00000000
72, 0.03500000, 0.00333333, 0.00000000
73, 0.03666667, 0.00333333, 0.00000000
74, 0.03833333, 0.00333333, 0.00000000
75, 0.04000000, 0.00333333, 0.00000000
76, 0.00000000, 0.00500000, 0.00000000
77, 0.00166667, 0.00500000, 0.00000000
78, 0.00333333, 0.00500000, 0.00000000
79, 0.00500000, 0.00500000, 0.00000000
80, 0.00666667, 0.00500000, 0.00000000
81, 0.00833333, 0.00500000, 0.00000000
82, 0.01000000, 0.00500000, 0.00000000
83, 0.01166667, 0.00500000, 0.00000000
84, 0.01333333, 0.00500000, 0.00000000
85, 0.01500000, 0.00500000, 0.00000000
86, 0.01666667, 0.00500000, 0.00000000
87, 0.01833333, 0.00500000, 0.00000000
88, 0.02000000, 0.00500000, 0.00000000
89, 0.02166667, 0.00500000, 0.00000000
90, 0.02333333, 0.00500000, 0.00000000
91, 0.02500000, 0.00500000, 0.00000000
92, 0.02666667, 0.00500000, 0.00000000
93, 0.02833333, 0.00500000, 0.00000000
94, 0.03000000, 0.00500000, 0.00000000
95, 0.03166667, 0.00500000, 0.00000000
96, 0.03333333, 0.00500000, 0.00000000
97, 0.03500000, 0.00500000, 0.00000000
98, 0.03666667, 0.00500000, 0.00000000
99, 0.03833333, 0.00500000, 0.00000000
100, 0.04000000, 0.00500000, 0.00000000
101, 0.00000000, 0.00666667, 0.00000000
102, 0.00166667, 0.00666667, 0.00000000
103, 0.00333333, 0.00666667, 0.00000000
104, 0.00500000, 0.00666667, 0.00000000
105, 0.00666667, 0.00666667, 0.00000000
106, 0.00833333, 0.00666667, 0.00000000
107, 0.01000000, 0.00666667, 0.00000000
108, 0.01166667, 0.00666667, 0.00000000
109, 0.01333333, 0.00666667, 0.00000000
110, 0.01500000, 0.00666667, 0.00000000
111, 0.01666667, 0.00666667, 0.00000000
112, 0.01833333, 0.00666667, 0.00000000
113, 0.02000000, 0.00666667, 0.00000000
114, 0.02166667, 0.00666667, 0.00000000
115, 0.02333333, 0.00666667, 0.00000000
116, 0.02500000, 0.00666667, 0.00000000
117, 0.02666667, 0.00666667, 0.00000000
118, 0.02833333, 0.00666667, 0.00000000
119, 0.03000000, 0.00666667, 0.00000000
120, 0.03166667, 0.00666667, 0.00000000
121, 0.03333333, 0.00666667, 0.00000000
122, 0.03500000, 0.00666667, 0.00000000
123, 0.03666667, 0.00666667, 0.00000000
124, 0.03833333, 0.00666667, 0.00000000
125, 0.04000000, 0.00666667, 0.00000000
126, 0.00000000, 0.00833333, 0.00000000
127, 0.00166667, 0.00833333, 0.00000000
128, 0.00333333, 0.00833333, 0.00000000
129, 0.00500000, 0.00833333, 0.00000000
130, 0.00666667, 0.00833333, 0.00000000
131, 0.00833333, 0.00833333, 0.00000000
132, 0.01000000, 0.00833333, 0.00000000
133, 0.01166667, 0.00833333, 0.00000000
134, 0.01333333, 0.00833333, 0.00000000
135, 0.01500000, 0.00833333, 0.00000000
136, 0.01666667, 0.00833333, 0.00000000
137, 0.01833333, 0.00833333, 0.00000000
138, 0.02000000, 0.00833333, 0.00000000
139, 0.02166667, 0.00833333, 0.00000000
140, 0.02333333, 0.00833333, 0.00000000
141, 0.02500000, 0.00833333, 0.00000000
142, 0.02666667, 0.00833333, 0.00000000
143, 0.02833333, 0.00833333, 0.00000000
144, 0.03000000, 0.00833333, 0.00000000
145, 0.03166667, 0.00833333, 0.00000000
146, 0.03333333, 0.00833333, 0.00000000
147, 0.03500000, 0.00833333, 0.00000000
148, 0.03666667, 0.00833333, 0.00000000
149, 0.03833333, 0.00833333, 0.00000000
150, 0.04000000, 0.00833333, 0.00000000
151, 0.00000000, 0.01000000, 0.00000000
152, 0.00166667, 0.01000000, 0.00000000
153, 0.00333333, 0.01000000, 0.00000000
154, 0.00500000, 0.01000000, 0.00000000
155, 0.00666667, 0.01000000, 0.00000000
156, 0.00833333, 0.01000000, 0.00000000
157, 0.01000000, 0.01000000, 0.00000000
158, 0.01166667, 0.01000000, 0.00000000
159, 0.01333333, 0.01000000, 0.00000000
160, 0.01500000, 0.01000000, 0.00000000
161, 0.01666667, 0.01000000, 0.00000000
162, 0.01833333, 0.01000000, 0.00000000
163, 0.02000000, 0.01000000, 0.00000000
164, 0.02166667, 0.01000000, 0.00000000
165, 0.02333333, 0.01000000, 0.00000000
166, 0.02500000, 0.01000000, 0.00000000
167, 0.02666667, 0.01000000, 0.00000000
168, 0.02833333, 0.01000000, 0.00000000
169, 0.03000000, 0.01000000, 0.00000000
170, 0.03166667, 0.01000000, 0.00000000
171, 0.03333333, 0.01000000, 0.00000000
172, 0.03500000, 0.01000000, 0.00000000
173, 0.03666667, 0.01000000, 0.00000000
174, 0.03833333, 0.01000000, 0.00000000
175, 0.04000000, 0.01000000, 0.00000000
176, 0.00000000, 0.01166667, 0.00000000
177, 0.00166667, 0.01166667, 0.00000000
178, 0.00333333, 0.01166667, 0.00000000
179, 0.00500000, 0.01166667, 0.00000000
180, 0.00666667, 0.01166667, 0.00000000
181, 0.00833333, 0.01166667, 0.00000000
182, 0.01000000, 0.01166667, 0.00000000
183, 0.01166667, 0.01166667, 0.00000000
184, 0.01333333, 0.01166667, 0.00000000
185, 0.01500000, 0.01166667, 0.00000000
186, 0.01666667, 0.01166667, 0.00000000
187, 0.01833333, 0.01166667, 0.00000000
188, 0.02000000, 0.01166667, 0.00000000
189, 0.02166667, 0.01166667, 0.00000000
190, 0.02333333, 0.01166667, 0.00000000
191, 0.02500000, 0.01166667, 0.00000000
192, 0.02666667, 0.01166667, 0.00000000
193, 0.02833333, 0.01166667, 0.00000000
194, 0.03000000, 0.01166667, 0.00000000
195, 0.03166667, 0.01166667, 0.00000000
196, 0.03333333, 0.01166667, 0.00000000
197, 0.03500000, 0.01166667, 0.00000000
198, 0.03666667, 0.01166667, 0.00000000
199, 0.03833333, 0.01166667, 0.00000000
200, 0.04000000, 0.01166667, 0.00000000
201, 0.00000000, 0.01333333, 0.00000000
202, 0.00166667, 0.01333333, 0.00000000
203, 0.00333333, 0.01333333, 0.00000000
204, 0.00500000, 0.01333333, 0.00000000
205, 0.00666667, 0.01333333, 0.00000000
206, 0.00833333, 0.01333333, 0.00000000
207, 0.01000000, 0.01333333, 0.00000000
208, 0.01166667, 0.01333333, 0.00000000
209, 0.01333333, 0.01333333, 0.00000000
210, 0.01500000, 0.01333333, 0.00000000
211, 0.01666667, 0.01333333, 0.00000000
212, 0.01833333, 0.01333333, 0.00000000
213, 0.02000000, 0.01333333, 0.00000000
214, 0.02166667, 0.01333333, 0.00000000
215, 0.02333333, 0.01333333, 0.00000000
216, 0.02500000, 0.01333333, 0.00000000
217, 0.02666667, 0.01333333, 0.00000000
218, 0.02833333, 0.01333333, 0.00000000
219, 0.03000000, 0.01333333, 0.00000000
220, 0.03166667, 0.01333333, 0.00000000
221, 0.03333333, 0.01333333, 0.00000000
222, 0.03500000, 0.01333333, 0.00000000
223, 0.03666667, 0.01333333, 0.00000000
224, 0.03833333, 0.01333333, 0.00000000
225, 0.04000000, 0.01333333, 0.00000000
226, 0.00000000, 0.01500000, 0.00000000
227, 0.00166667, 0.01500000, 0.00000000
228, 0.00333333, 0.01500000, 0.00000000
229, 0.00500000, 0.01500000, 0.00000000
230, 0.00666667, 0.01500000, 0.00000000
231, 0.00833333, 0.01500000, 0.00000000
232, 0.01000000, 0.01500000, 0.00000000
233, 0.01166667, 0.01500000, 0.00000000
234, 0.01333333, 0.01500000, 0.00000000
235, 0.01500000, 0.01500000, 0.00000000
236, 0.01666667, 0.01500000, 0.00000000
237, 0.01833333, 0.01500000, 0.00000000
238, 0.02000000, 0.01500000, 0.00000000
239, 0.02166667, 0.01500000, 0.00000000
240, 0.02333333, 0.01500000, 0.00000000
241, 0.02500000, 0.01500000, 0.00000000
242, 0.02666667, 0.01500000, 0.00000000
243, 0.02833333, 0.01500000, 0.00000000
244, 0.03000000, 0.01500000, 0.00000000
245, 0.03166667, 0.01500000, 0.00000000
246, 0.03333333, 0.01500000, 0.00000000
247, 0.03500000, 0.01500000, 0.00000000
248, 0.03666667, 0.01500000, 0.00000000
249, 0.03833333, 0.01500000, 0.00000000
250, 0.04000000, 0.01500000, 0.00000000
251, 0.00000000, 0.01666667, 0.00000000
252, 0.00166667, 0.01666667, 0.00000000
253, 0.00333333, 0.01666667, 0.00000000
254, 0.00500000, 0.01666667, 0.00000000
255, 0.00666667, 0.01666667, 0.00000000
256, 0.00833333, 0.01666667, 0.00000000
257, 0.01000000, 0.01666667, 0.00000000
258, 0.01166667, 0.01666667, 0.00000000
259, 0.01333333, 0.01666667, 0.00000000
260, 0.01500000, 0.01666667, 0.00000000
261, 0.01666667, 0.01666667, 0.00000000
262, 0.01833333, 0.01666667, 0.00000000
263, 0.02000000, 0.01666667, 0.00000000
264, 0.02166667, 0.01666667, 0.00000000
265, 0.02333333, 0.01666667, 0.00000000
266, 0.02500000, 0.01666667, 0.00000000
267, 0.02666667, 0.01666667, 0.00000000
268, 0.02833333, 0.01666667, 0.00000000
269, 0.03000000, 0.01666667, 0.00000000
270, 0.03166667, 0.01666667, 0.00000000
271, 0.03333333, 0.01666667, 0.00000000
272, 0.03500000, 0.01666667, 0.00000000
273, 0.03666667, 0.01666667, 0.00000000
274, 0.03833333, 0.01666667, 0.00000000
275, 0.04000000, 0.01666667, 0.00000000
276, 0.00000000, 0.01833333, 0.00000000
277, 0.00166667, 0.01833333, 0.00000000
278, 0.00333333, 0.01833333, 0.00000000
279, 0.00500000, 0.01833333, 0.00000000
280, 0.00666667, 0.01833333, 0.00000000
281, 0.00833333, 0.01833333, 0.00000000
282, 0.01000000, 0.01833333, 0.00000000
283, 0.01166667, 0.01833333, 0.00000000
284, 0.01333333, 0.01833333, 0.00000000
285, 0.01500000, 0.01833333, 0.00000000
286, 0.01666667, 0.01833333, 0.00000000
287, 0.01833333, 0.01833333, 0.00000000
288, 0.02000000, 0.01833333, 0.00000000
289, 0.02166667, 0.01833333, 0.00000000
290, 0.02333333, 0.01833333, 0.00000000
291, 0.02500000, 0.01833333, 0.00000000
292, 0.02666667, 0.01833333, 0.00000000
293, 0.02833333, 0.01833333, 0.00000000
294, 0.03000000, 0.01833333, 0.00000000
295, 0.03166667, 0.01833333, 0.00000000
296, 0.03333333, 0.01833333, 0.00000000
297, 0.03500000, 0.01833333, 0.00000000
298, 0.03666667, 0.01833333, 0.00000000
299, 0.03833333, 0.01833333, 0.00000000
300, 0.04000000, 0.01833333, 0.00000000
301, 0.00000000, 0.02000000, 0.00000000
302, 0.00166667, 0.02000000, 0.00000000
303, 0.00333333, 0.02000000, 0.00000000
304, 0.00500000, 0.02000000, 0.00000000
305, 0.00666667, 0.02000000, 0.00000000
306, 0.00833333, 0.02000000, 0.00000000
307, 0.01000000, 0.02000000, 0.00000000
308, 0.01166667, 0.02000000, 0.00000000
309, 0.01333333, 0.02000000, 0.00000000
310, 0.01500000, 0.02000000, 0.00000000
311, 0.01666667, 0.02000000, 0.00000000
312, 0.01833333, 0.02000000, 0.00000000
313, 0.02000000, 0.02000000, 0.00000000
314, 0.02166667, 0.02000000, 0.00000000
315, 0.02333333, 0.02000000, 0.00000000
316, 0.02500000, 0.02000000, 0.00000000
317, 0.02666667, 0.02000000, 0.00000000
318, 0.02833333, 0.02000000, 0.00000000
319, 0.03000000, 0.02000000, 0.00000000
320, 0.03166667, 0.02000000, 0.00000000
321, 0.03333333, 0.02000000, 0.00000000
322, 0.03500000, 0.02000000, 0.00000000
323, 0.03666667, 0.02000000, 0.00000000
324, 0.03833333, 0.02000000, 0.00000000
325, 0.04000000, 0.02000000, 0.00000000
326, 0.00000000, 0.02166667, 0.00000000
327, 0.00166667, 0.02166667, 0.00000000
328, 0.00333333, 0.02166667, 0.00000000
329, 0.00500000, 0.02166667, 0.00000000
330, 0.00666667, 0.02166667, 0.00000000
331, 0.00833333, 0.02166667, 0.00000000
332, 0.01000000, 0.02166667, 0.00000000
333, 0.01166667, 0.02166667, 0.00000000
334, 0.01333333, 0.02166667, 0.00000000
335, 0.01500000, 0.02166667, 0.00000000
336, 0.01666667, 0.02166667, 0.00000000
337, 0.01833333, 0.02166667, 0.00000000
338, 0.02000000, 0.02166667, 0.00000000
339, 0.02166667, 0.02166667, 0.00000000
340, 0.02333333, 0.02166667, 0.00000000
341, 0.02500000, 0.02166667, 0.00000000
342, 0.02666667, 0.02166667, 0.00000000
343, 0.02833333, 0.02166667, 0.00000000
344, 0.03000000, 0.02166667, 0.00000000
345, 0.03166667, 0.02166667, 0.00000000
346, 0.03333333, 0.02166667, 0.00000000
347, 0.03500000, 0.02166667, 0.00000000
348, 0.03666667, 0.02166667, 0.00000000
349, 0.03833333, 0.02166667, 0.00000000
350, 0.04000000, 0.02166667, 0.00000000
351, 0.00000000, 0.02333333, 0.00000000
352, 0.00166667, 0.02333333, 0.00000000
353, 0.00333333, 0.02333333, 0.00000000
354, 0.00500000, 0.02333333, 0.00000000
355, 0.00666667, 0.02333333, 0.00000000
356, 0.00833333, 0.02333333, 0.00000000
357, 0.01000000, 0.02333333, 0.00000000
358, 0.01166667, 0.02333333, 0.00000000
359, 0.01333333, 0.02333333, 0.00000000
360, 0.01500000, 0.02333333, 0.00000000
361, 0.01666667, 0.02333333, 0.00000000
362, 0.01833333, 0.02333333, 0.00000000
363, 0.02000000, 0.02333333, 0.00000000
364, 0.02166667, 0.02333333, 0.00000000
365, 0.02333333, 0.02333333, 0.00000000
366, 0.02500000, 0.02333333, 0.00000000
367, 0.02666667, 0.02333333, 0.00000000
368, 0.02833333, 0.02333333, 0.00000000
369, 0.03000000, 0.02333333, 0.00000000
370, 0.03166667, 0.02333333, 0.00000000
371, 0.03333333, 0.02333333, 0.00000000
372, 0.03500000, 0.02333333, 0.00000000
373, 0.03666667, 0.02333333, 0.00000000
374, 0.03833333, 0.02333333, 0.00000000
375, 0.04000000, 0.02333333, 0.00000000
376, 0.00000000, 0.02500000, 0.00000000
377, 0.00166667, 0.02500000, 0.00000000
378, 0.00333333, 0.02500000, 0.00000000
379, 0.00500000, 0.02500000, 0.00000000
380, 0.00666667, 0.02500000, 0.00000000
381, 0.00833333, 0.02500000, 0.00000000
382, 0.01000000, 0.02500000, 0.00000000
383, 0.01166667, 0.02500000, 0.00000000
384, 0.01333333, 0.02500000, 0.00000000
385, 0.01500000, 0.02500000, 0.00000000
386, 0.01666667, 0.02500000, 0.00000000
387, 0.01833333, 0.02500000, 0.00000000
388, 0.02000000, 0.02500000, 0.00000000
389, 0.02166667, 0.02500000, 0.00000000
390, 0.02333333, 0.02500000, 0.00000000
391, 0.02500000, 0.02500000, 0.00000000
392, 0.02666667, 0.02500000, 0.00000000
393, 0.02833333, 0.02500000, 0.00000000
394, 0.03000000, 0.02500000, 0.00000000
395, 0.03166667, 0.02500000, 0.00000000
396, 0.03333333, 0.02500000, 0.00000000
397, 0.03500000, 0.02500000, 0.00000000
398, 0.03666667, 0.02500000, 0.00000000
399, 0.03833333, 0.02500000, 0.00000000
400, 0.04000000, 0.02500000, 0.00000000
401, 0.00000000, 0.02666667, 0.00000000
402, 0.00166667, 0.02666667, 0.00000000
403, 0.00333333, 0.02666667, 0.00000000
404, 0.00500000, 0.02666667, 0.00000000
405, 0.00666667, 0.02666667, 0.00000000
406, 0.00833333, 0.02666667, 0.00000000
407, 0.01000000, 0.02666667, 0.00000000
408, 0.01166667, 0.02666667, 0.00000000
409, 0.01333333, 0.02666667, 0.00000000
410, 0.01500000, 0.02666667, 0.00000000
411, 0.01666667, 0.02666667, 0.00000000
412, 0.01833333, 0.02666667, 0.00000000
413, 0.02000000, 0.02666667, 0.00000000
414, 0.02166667, 0.02666667, 0.00000000
415, 0.02333333, 0.02666667, 0.00000000
416, 0.02500000, 0.02666667, 0.00000000
417, 0.02666667, 0.02666667, 0.00000000
418, 0.02833333, 0.02666667, 0.00000000
419, 0.03000000, 0.02666667, 0.00000000
420, 0.03166667, 0.02666667, 0.00000000
421, 0.03333333, 0.02666667, 0.00000000
422, 0.03500000, 0.02666667, 0.00000000
423, 0.03666667, 0.02666667, 0.00000000
424, 0.03833333, 0.02666667, 0.00000000
425, 0.04000000, 0.02666667, 0.00000000
426, 0.00000000, 0.02833333, 0.00000000
427, 0.00166667, 0.02833333, 0.00000000
428, 0.00333333, 0.02833333, 0.00000000
429, 0.00500000, 0.02833333, 0.00000000
430, 0.00666667, 0.02833333, 0.00000000
431, 0.00833333, 0.02833333, 0.00000000
432, 0.01000000, 0.02833333, 0.00000000
433, 0.01166667, 0.02833333, 0.00000000
434, 0.01333333, 0.02833333, 0.00000000
435, 0.01500000, 0.02833333, 0.00000000
436, 0.01666667, 0.02833333, 0.00000000
437, 0.01833333, 0.02833333, 0.00000000
438, 0.02000000, 0.02833333, 0.00000000
439, 0.02166667, 0.02833333, 0.00000000
440, 0.02333333, 0.02833333, 0.00000000
441, 0.02500000, 0.02833333, 0.00000000
442, 0.02666667, 0.02833333, 0.00000000
443, 0.02833333, 0.02833333, 0.00000000
444, 0.03000000, 0.02833333, 0.00000000
445, 0.03166667, 0.02833333, 0.00000000
446, 0.03333333, 0.02833333, 0.00000000
447, 0.03500000, 0.02833333, 0.00000000
448, 0.03666667, 0.02833333, 0.00000000
449, 0.03833333, 0.02833333, 0.00000000
450, 0.04000000, 0.02833333, 0.00000000
451, 0.00000000, 0.03000000, 0.00000000
452, 0.00166667, 0.03000000, 0.00000000
453, 0.00333333, 0.03000000, 0.00000000
454, 0.00500000, 0.03000000, 0.00000000
455, 0.00666667, 0.03000000, 0.00000000
456, 0.00833333, 0.03000000, 0.00000000
457, 0.01000000, 0.03000000, 0.00000000
458, 0.01166667, 0.03000000, 0.00000000
459, 0.01333333, 0.03000000, 0.00000000
460, 0.01500000, 0.03000000, 0.00000000
461, 0.01666667, 0.03000000, 0.00000000
462, 0.01833333, 0.03000000, 0.00000000
463, 0.02000000, 0.03000000, 0.00000000
464, 0.02166667, 0.03000000, 0.00000000
465, 0.02333333, 0.03000000, 0.00000000
466, 0.02500000, 0.03000000, 0.00000000
467, 0.02666667, 0.03000000, 0.00000000
468, 0.02833333, 0.03000000, 0.00000000
469, 0.03000000, 0.03000000, 0.00000000
470, 0.03166667, 0.03000000, 0.00000000
471, 0.03333333, 0.03000000, 0.00000000
472, 0.03500000, 0.03000000, 0.00000000
473, 0.03666667, 0.03000000, 0.00000000
474, 0.03833333, 0.03000000, 0.00000000
475, 0.04000000, 0.03000000, 0.00000000
476, 0.00000000, 0.03166667, 0.00000000
477, 0.00166667, 0.03166667, 0.00000000
478, 0.00333333, 0.03166667, 0.00000000
479, 0.00500000, 0.03166667, 0.00000000
480, 0.00666667, 0.03166667, 0.00000000
481, 0.00833333, 0.03166667, 0.00000000
482, 0.01000000, 0.03166667, 0.00000000
483, 0.01166667, 0.03166667, 0.00000000
484, 0.01333333, 0.03166667, 0.00000000
485, 0.01500000, 0.03166667, 0.00000000
486, 0.01666667, 0.03166667, 0.00000000
487, 0.01833333, 0.03166667, 0.00000000
488, 0.02000000, 0.03166667, 0.00000000
489, 0.02166667, 0.03166667, 0.00000000
490, 0.02333333, 0.03166667, 0.00000000
491, 0.02500000, 0.03166667, 0.00000000
492, 0.02666667, 0.03166667, 0.00000000
493, 0.02833333, 0.03166667, 0.00000000
494, 0.03000000, 0.03166667, 0.00000000
495, 0.03166667, 0.03166667, 0.00000000
496, 0.03333333, 0.03166667, 0.00000000
497, 0.03500000, 0.03166667, 0.00000000
498, 0.03666667, 0.03166667, 0.00000000
499, 0.03833333, 0.03166667, 0.00000000
500, 0.04000000, 0.03166667, 0.00000000
501, 0.00000000, 0.03333333, 0.00000000
502, 0.00166667, 0.03333333, 0.00000000
503, 0.00333333, 0.03333333, 0.00000000
504, 0.00500000, 0.03333333, 0.00000000
505, 0.00666667, 0.03333333, 0.00000000
506, 0.00833333, 0.03333333, 0.00000000
507, 0.01000000, 0.03333333, 0.00000000
508, 0.01166667, 0.03333333, 0.00000000
509, 0.01333333, 0.03333333, 0.00000000
510, 0.01500000, 0.03333333, 0.00000000
511, 0.01666667, 0.03333333, 0.00000000
512, 0.01833333, 0.03333333, 0.00000000
513, 0.02000000, 0.03333333, 0.00000000
514, 0.02166667, 0.03333333, 0.00000000
515, 0.02333333, 0.03333333, 0.00000000
516, 0.02500000, 0.03333333, 0.00000000
517, 0.02666667, 0.03333333, 0.00000000
518, 0.02833333, 0.03333333, 0.00000000
519, 0.03000000, 0.03333333, 0.00000000
520, 0.03166667, 0.03333333, 0.00000000
521, 0.03333333, 0.03333333, 0.00000000
522, 0.03500000, 0.03333333, 0.00000000
523, 0.03666667, 0.03333333, 0.00000000
524, 0.03833333, 0.03333333, 0.00000000
525, 0.04000000, 0.03333333, 0.00000000
526, 0.00000000, 0.03500000, 0.00000000
527, 0.00166667, 0.03500000, 0.00000000
528, 0.00333333, 0.03500000, 0.00000000
529, 0.00500000, 0.03500000, 0.00000000
530, 0.00666667, 0.03500000, 0.00000000
531, 0.00833333, 0.03500000, 0.00000000
532, 0.01000000, 0.03500000, 0.00000000
533, 0.01166667, 0.03500000, 0.00000000
534, 0.01333333, 0.03500000, 0.00000000
535, 0.01500000, 0.03500000, 0.00000000
536, 0.01666667, 0.03500000, 0.00000000
537, 0.01833333, 0.03500000, 0.00000000
538, 0.02000000, 0.03500000, 0.00000000
539, 0.02166667, 0.03500000, 0.00000000
540, 0.02333333, 0.03500000, 0.00000000
541, 0.02500000, 0.03500000, 0.00000000
542, 0.02666667, 0.03500000, 0.00000000
543, 0.02833333, 0.03500000, 0.00000000
544, 0.03000000, 0.03500000, 0.00000000
545, 0.03166667, 0.03500000, 0.00000000
546, 0.03333333, 0.03500000, 0.00000000
547, 0.03500000, 0.03500000, 0.00000000
548, 0.03666667, 0.03500000, 0.00000000
549, 0.03833333, 0.03500000, 0.00000000
550, 0.04000000, 0.03500000, 0.00000000
551, 0.00000000, 0.03666667, 0.00000000
552, 0.00166667, 0.03666667, 0.00000000
553, 0.00333333, 0.03666667, 0.00000000
554, 0.00500000, 0.03666667, 0.00000000
555, 0.00666667, 0.03666667, 0.00000000
556, 0.00833333, 0.03666667, 0.00000000
557, 0.01000000, 0.03666667, 0.00000000
558, 0.01166667, 0.03666667, 0.00000000
559, 0.01333333, 0.03666667, 0.00000000
560, 0.01500000, 0.03666667, 0.00000000
561, 0.01666667, 0.03666667, 0.00000000
562, 0.01833333, 0.03666667, 0.00000000
563, 0.02000000, 0.03666667, 0.00000000
564, 0.02166667, 0.03666667, 0.00000000
565, 0.02333333, 0.03666667, 0.00000000
566, 0.02500000, 0.03666667, 0.00000000
567, 0.02666667, 0.03666667, 0.00000000
568, 0.02833333, 0.03666667, 0.00000000
569, 0.03000000, 0.03666667, 0.00000000
570, 0.03166667, 0.03666667, 0.00000000
571, 0.03333333, 0.03666667, 0.00000000
572, 0.03500000, 0.03666667, 0.00000000
573, 0.03666667, 0.03666667, 0.00000000
574, 0.03833333, 0.03666667, 0.00000000
575, 0.04000000, 0.03666667, 0.00000000
576, 0.00000000, 0.03833333, 0.00000000
577, 0.00166667, 0.03833333, 0.00000000
578, 0.00333333, 0.03833333, 0.00000000
579, 0.00500000, 0.03833333, 0.00000000
580, 0.00666667, 0.03833333, 0.00000000
581, 0.00833333, 0.03833333, 0.00000000
582, 0.01000000, 0.03833333, 0.00000000
583, 0.01166667, 0.03833333, 0.00000000
584, 0.01333333, 0.03833333, 0.00000000
585, 0.01500000, 0.03833333, 0.00000000
586, 0.01666667, 0.03833333, 0.00000000
587, 0.01833333, 0.03833333, 0.00000000
588, 0.02000000, 0.03833333, 0.00000000
589, 0.02166667, 0.03833333, 0.00000000
590, 0.02333333, 0.03833333, 0.00000000
591, 0.02500000, 0.03833333, 0.00000000
592, 0.02666667, 0.03833333, 0.00000000
593, 0.02833333, 0.03833333, 0.00000000
594, 0.03000000, 0.03833333, 0.00000000
595, 0.03166667, 0.03833333, 0.00000000
596, 0.03333333, 0.03833333, 0.00000000
597, 0.03500000, 0.03833333, 0.00000000
598, 0.03666667, 0.03833333, 0.00000000
599, 0.03833333, 0.03833333, 0.00000000
600, 0.04000000, 0.03833333, 0.00000000
601, 0.00000000, 0.04000000, 0.00000000
602, 0.00166667, 0.04000000, 0.00000000
603, 0.00333333, 0.04000000, 0.00000000
604, 0.00500000, 0.04000000, 0.00000000
605, 0.00666667, 0.04000000, 0.00000000
606, 0.00833333, 0.04000000, 0.00000000
607, 0.01000000, 0.04000000, 0.00000000
608, 0.01166667, 0.04000000, 0.00000000
609, 0.01333333, 0.04000000, 0.00000000
610, 0.01500000, 0.04000000, 0.00000000
611, 0.01666667, 0.04000000, 0.00000000
612, 0.01833333, 0.04000000, 0.00000000
613, 0.02000000, 0.04000000, 0.00000000
614, 0.02166667, 0.04000000, 0.00000000
615, 0.02333333, 0.04000000, 0.00000000
616, 0.02500000, 0.04000000, 0.00000000
617, 0.02666667, 0.04000000, 0.00000000
618, 0.02833333, 0.04000000, 0.00000000
619, 0.03000000, 0.04000000, 0.00000000
620, 0.03166667, 0.04000000, 0.00000000
621, 0.03333333, 0.04000000, 0.00000000
622, 0.03500000, 0.04000000, 0.00000000
623, 0.03666667, 0.04000000, 0.00000000
624, 0.03833333, 0.04000000, 0.00000000
625, 0.04000000, 0.04000000, 0.00000000
626, 0.00000000, 0.00000000, 0.00125000
627, 0.00166667, 0.00000000, 0.00125000
628, 0.00333333, 0.00000000, 0.00125000
629, 0.00500000, 0.00000000, 0.00125000
630, 0.00666667, 0.00000000, 0.00125000
631, 0.00833333, 0.00000000, 0.00125000
632, 0.01000000, 0.00000000, 0.00125000
633, 0.01166667, 0.00000000, 0.00125000
634, 0.01333333, 0.00000000, 0.00125000
635, 0.01500000, 0.00000000, 0.00125000
636, 0.01666667, 0.00000000, 0.00125000
637, 0.01833333, 0.00000000, 0.00125000
638, 0.02000000, 0.00000000, 0.00125000
639, 0.02166667, 0.00000000, 0.00125000
640, 0.02333333, 0.00000000, 0.00125000
641, 0.02500000, 0.00000000, 0.00125000
642, 0.02666667, 0.00000000, 0.00125000
643, 0.02833333, 0.00000000, 0.00125000
644, 0.03000000, 0.00000000, 0.00125000
645, 0.03166667, 0.00000000, 0.00125000
646, 0.03333333, 0.00000000, 0.00125000
647, 0.03500000, 0.00000000, 0.00125000
648, 0.03666667, 0.00000000, 0.00125000
649, 0.03833333, 0.00000000, 0.00125000
650, 0.04000000, 0.00000000, 0.00125000
651, 0.00000000, 0.00166667, 0.00125000
652, 0.00166667, 0.00166667, 0.00125000
653, 0.00333333, 0.00166667, 0.00125000
654, 0.00500000, 0.00166667, 0.00125000
655, 0.00666667, 0.00166667, 0.00125000
656, 0.00833333, 0.00166667, 0.00125000
657, 0.01000000, 0.00166667, 0.00125000
658, 0.01166667, 0.00166667, 0.00125000
659, 0.01333333, 0.00166667, 0.00125000
660, 0.01500000, 0.00166667, 0.00125000
661, 0.01666667, 0.00166667, 0.00125000
662, 0.01833333, 0.00166667, 0.00125000
663, 0.02000000, 0.00166667, 0.00125000
664, 0.02166667, 0.00166667, 0.00125000
665, 0.02333333, 0.00166667, 0.00125000
666, 0.02500000, 0.00166667, 0.00125000
667, 0.02666667, 0.00166667, 0.00125000
668, 0.02833333, 0.00166667, 0.00125000
669, 0.03000000, 0.00166667, 0.00125000
670, 0.03166667, 0.00166667, 0.00125000
671, 0.03333333, 0.00166667, 0.00125000
672, 0.03500000, 0.00166667, 0.00125000
673, 0.03666667, 0.00166667, 0.00125000
674, 0.03833333, 0.00166667, 0.00125000
675, 0.04000000, 0.00166667, 0.00125000
676, 0.00000000, 0.00333333, 0.00125000
677, 0.00166667, 0.00333333, 0.00125000
678, 0.00333333, 0.00333333, 0.00125000
679, 0.00500000, 0.00333333, 0.00125000
680, 0.00666667, 0.00333333, 0.00125000
681, 0.00833333, 0.00333333, 0.00125000
682, 0.01000000, 0.00333333, 0.00125000
683, 0.01166667, 0.00333333, 0.00125000
684, 0.01333333, 0.00333333, 0.00125000
685, 0.01500000, 0.00333333, 0.00125000
686, 0.01666667, 0.00333333, 0.00125000
687, 0.01833333, 0.00333333, 0.00125000
688, 0.02000000, 0.00333333, 0.00125000
689, 0.02166667, 0.00333333, 0.00125000
690, 0.02333333, 0.00333333, 0.00125000
691, 0.02500000, 0.00333333, 0.00125000
692, 0.02666667, 0.00333333, 0.00125000
693, 0.02833333, 0.00333333, 0.00125000
694, 0.03000000, 0.00333333, 0.00125000
695, 0.03166667, 0.00333333, 0.00125000
696, 0.03333333, 0.00333333, 0.00125000
697, 0.03500000, 0.00333333, 0.00125000
698, 0.03666667, 0.00333333, 0.00125000
699, 0.03833333, 0.00333333, 0.00125000
700, 0.04000000, 0.00333333, 0.00125000
701, 0.00000000, 0.00500000, 0.00125000
702, 0.00166667, 0.00500000, 0.00125000
703, 0.00333333, 0.00500000, 0.00125000
704, 0.00500000, 0.00500000, 0.00125000
705, 0.00666667, 0.00500000, 0.00125000
706, 0.00833333, 0.00500000, 0.00125000
707, 0.01000000, 0.00500000, 0.00125000
708, 0.01166667, 0.00500000, 0.00125000
709, 0.01333333, 0.00500000, 0.00125000
710, 0.01500000, 0.00500000, 0.00125000
711, 0.01666667, 0.00500000, 0.00125000
712, 0.01833333, 0.00500000, 0.00125000
713, 0.02000000, 0.00500000, 0.00125000
714, 0.02166667, 0.00500000, 0.00125000
715, 0.02333333, 0.00500000, 0.00125000
716, 0.02500000, 0.00500000, 0.00125000
717, 0.02666667, 0.00500000, 0.00125000
718, 0.02833333, 0.00500000, 0.00125000
719, 0.03000000, 0.00500000, 0.00125000
720, 0.03166667, 0.00500000, 0.00125000
721, 0.03333333, 0.00500000, 0.00125000
722, 0.03500000, 0.00500000, 0.00125000
723, 0.03666667, 0.00500000, 0.00125000
724, 0.03833333, 0.00500000, 0.00125000
725, 0.04000000, 0.00500000, 0.00125000
726, 0.00000000, 0.00666667, 0.00125000
727, 0.00166667, 0.00666667, 0.00125000
728, 0.00333333, 0.00666667, 0.00125000
729, 0.00500000, 0.00666667, 0.00125000
730, 0.00666667, 0.00666667, 0.00125000
731, 0.00833333, 0.00666667, 0.00125000
732, 0.01000000, 0.00666667, 0.00125000
733, 0.01166667, 0.00666667, 0.00125000
734, 0.01333333, 0.00666667, 0.00125000
735, 0.01500000, 0.00666667, 0.00125000
736, 0.01666667, 0.00666667, 0.00125000
737, 0.01833333, 0.00666667, 0.00125000
738, 0.02000000, 0.00666667, 0.00125000
739, 0.02166667, 0.00666667, 0.00125000
740, 0.02333333, 0.00666667, 0.00125000
741, 0.02500000, 0.00666667, 0.00125000
742, 0.02666667, 0.00666667, 0.00125000
743, 0.02833333, 0.00666667, 0.00125000
744, 0.03000000, 0.00666667, 0.00125000
745, 0.03166667, 0.00666667, 0.00125000
746, 0.03333333, 0.00666667, 0.00125000
747, 0.03500000, 0.00666667, 0.00125000
748, 0.03666667, 0.00666667, 0.00125000
749, 0.03833333, 0.00666667, 0.00125000
750, 0.04000000, 0.00666667, 0.00125000
751, 0.00000000, 0.00833333, 0.00125000
752, 0.00166667, 0.00833333, 0.00125000
753, 0.00333333, 0.00833333, 0.00125000
754, 0.00500000, 0.00833333, 0.00125000
755, 0.00666667, 0.00833333, 0.00125000
756, 0.00833333, 0.00833333, 0.00125000
757, 0.01000000, 0.00833333, 0.00125000
758, 0.01166667, 0.00833333, 0.00125000
759, 0.01333333, 0.00833333, 0.00125000
760, 0.01500000, 0.00833333, 0.00125000
761, 0.01666667, 0.00833333, 0.00125000
762, 0.01833333, 0.00833333, 0.00125000
763, 0.02000000, 0.00833333, 0.00125000
764, 0.02166667, 0.00833333, 0.00125000
765, 0.02333333, 0.00833333, 0.00125000
766, 0.02500000, 0.00833333, 0.00125000
767, 0.02666667, 0.00833333, 0.00125000
768, 0.02833333, 0.00833333, 0.00125000
769, 0.03000000, 0.00833333, 0.00125000
770, 0.03166667, 0.00833333, 0.00125000
771, 0.03333333, 0.00833333, 0.00125000
772, 0.03500000, 0.00833333, 0.00125000
773, 0.03666667, 0.00833333, 0.00125000
774, 0.03833333, 0.00833333, 0.00125000
775, 0.04000000, 0.00833333, 0.00125000
776, 0.00000000, 0.01000000, 0.00125000
777, 0.00166667, 0.01000000, 0.00125000
778, 0.00333333, 0.01000000, 0.00125000
779, 0.00500000, 0.01000000, 0.00125000
780, 0.00666667, 0.01000000, 0.00125000
781, 0.00833333, 0.01000000, 0.00125000
782, 0.01000000, 0.01000000, 0.00125000
783, 0.01166667, 0.01000000, 0.00125000
784, 0.01333333, 0.01000000, 0.00125000
785, 0.01500000, 0.01000000, 0.00125000
786, 0.01666667, 0.01000000, 0.00125000
787, 0.01833333, 0.01000000, 0.00125000
788, 0.02000000, 0.01000000, 0.00125000
789, 0.02166667, 0.01000000, 0.00125000
790, 0.02333333, 0.01000000, 0.00125000
791, 0.02500000, 0.01000000, 0.00125000
792, 0.02666667, 0.01000000, 0.00125000
793, 0.02833333, 0.01000000, 0.00125000
794, 0.03000000, 0.01000000, 0.00125000
795, 0.03166667, 0.01000000, 0.00125000
796, 0.03333333, 0.01000000, 0.00125000
797, 0.03500000, 0.01000000, 0.00125000
798, 0.03666667, 0.01000000, 0.00125000
799, 0.03833333, 0.01000000, 0.00125000
800, 0.04000000, 0.01000000, 0.00125000
801, 0.00000000, 0.01166667, 0.00125000
802, 0.00166667, 0.01166667, 0.00125000
803, 0.00333333, 0.01166667, 0.00125000
804, 0.00500000, 0.01166667, 0.00125000
805, 0.00666667, 0.01166667, 0.00125000
806, 0.00833333, 0.01166667, 0.00125000
807, 0.01000000, 0.01166667, 0.00125000
808, 0.01166667, 0.01166667, 0.00125000
809, 0.01333333, 0.01166667, 0.00125000
810, 0.01500000, 0.01166667, 0.00125000
811, 0.01666667, 0.01166667, 0.00125000
812, 0.01833333, 0.01166667, 0.00125000
813, 0.02000000, 0.01166667, 0.00125000
814, 0.02166667, 0.01166667, 0.00125000
815, 0.02333333, 0.01166667, 0.00125000
816, 0.02500000, 0.01166667, 0.00125000
817, 0.02666667, 0.01166667, 0.00125000
818, 0.02833333, 0.01166667, 0.00125000
819, 0.03000000, 0.01166667, 0.00125000
820, 0.03166667, 0.01166667, 0.00125000
821, 0.03333333, 0.01166667, 0.00125000
822, 0.03500000, 0.01166667, 0.00125000
823, 0.03666667, 0.01166667, 0.00125000
824, 0.03833333, 0.01166667, 0.00125000
825, 0.04000000, 0.01166667, 0.00125000
826, 0.00000000, 0.01333333, 0.00125000
827, 0.00166667, 0.01333333, 0.00125000
828, 0.00333333, 0.01333333, 0.00125000
829, 0.00500000, 0.01333333, 0.00125000
830, 0.00666667, 0.01333333, 0.00125000
831, 0.00833333, 0.01333333, 0.00125000
832, 0.01000000, 0.01333333, 0.00125000
833, 0.01166667, 0.01333333, 0.00125000
834, 0.01333333, 0.01333333, 0.00125000
835, 0.01500000, 0.01333333, 0.00125000
836, 0.01666667, 0.01333333, 0.00125000
837, 0.01833333, 0.01333333, 0.00125000
838, 0.02000000, 0.01333333, 0.00125000
839, 0.02166667, 0.01333333, 0.00125000
840, 0.02333333, 0.01333333, 0.00125000
841, 0.02500000, 0.01333333, 0.00125000
842, 0.02666667, 0.01333333, 0.00125000
843, 0.02833333, 0.01333333, 0.00125000
844, 0.03000000, 0.01333333, 0.00125000
845, 0.03166667, 0.01333333, 0.00125000
846, 0.03333333, 0.01333333, 0.00125000
847, 0.03500000, 0.01333333, 0.00125000
848, 0.03666667, 0.01333333, 0.00125000
849, 0.03833333, 0.01333333, 0.00125000
850, 0.04000000, 0.01333333, 0.00125000
851, 0.00000000, 0.01500000, 0.00125000
852, 0.00166667, 0.01500000, 0.00125000
853, 0.00333333, 0.01500000, 0.00125000
854, 0.00500000, 0.01500000, 0.00125000
855, 0.00666667, 0.01500000, 0.00125000
856, 0.00833333, 0.01500000, 0.00125000
857, 0.01000000, 0.01500000, 0.00125000
858, 0.01166667, 0.01500000, 0.00125000
859, 0.01333333, 0.01500000, 0.00125000
860, 0.01500000, 0.01500000, 0.00125000
861, 0.01666667, 0.01500000, 0.00125000
862, 0.01833333, 0.01500000, 0.00125000
863, 0.02000000, 0.01500000, 0.00125000
864, 0.02166667, 0.01500000, 0.00125000
865, 0.02333333, 0.01500000, 0.00125000
866, 0.02500000, 0.01500000, 0.00125000
867, 0.02666667, 0.01500000, 0.00125000
868, 0.02833333, 0.01500000, 0.00125000
869, 0.03000000, 0.01500000, 0.00125000
870, 0.03166667, 0.01500000, 0.00125000
871, 0.03333333, 0.01500000, 0.00125000
872, 0.03500000, 0.01500000, 0.00125000
873, 0.03666667, 0.01500000, 0.00125000
874, 0.03833333, 0.01500000, 0.00125000
875, 0.04000000, 0.01500000, 0.00125000
876, 0.00000000, 0.01666667, 0.00125000
877, 0.00166667, 0.01666667, 0.00125000
878, 0.00333333, 0.01666667, 0.00125000
879, 0.00500000, 0.01666667, 0.00125000
880, 0.00666667, 0.01666667, 0.00125000
881, 0.00833333, 0.01666667, 0.00125000
882, 0.01000000, 0.01666667, 0.00125000
883, 0.01166667, 0.01666667, 0.00125000
884, 0.01333333, 0.01666667, 0.00125000
885, 0.01500000, 0.01666667, 0.00125000
886, 0.01666667, 0.01666667, 0.00125000
887, 0.01833333, 0.01666667, 0.00125000
888, 0.02000000, 0.01666667, 0.00125000
889, 0.02166667, 0.01666667, 0.00125000
890, 0.02333333, 0.01666667, 0.00125000
891, 0.02500000, 0.01666667, 0.00125000
892, 0.02666667, 0.01666667, 0.00125000
893, 0.02833333, 0.01666667, 0.00125000
894, 0.03000000, 0.01666667, 0.00125000
895, 0.03166667, 0.01666667, 0.00125000
896, 0.03333333, 0.01666667, 0.00125000
897, 0.03500000, 0.01666667, 0.00125000
898, 0.03666667, 0.01666667, 0.00125000
899, 0.03833333, 0.01666667, 0.00125000
900, 0.04000000, 0.01666667, 0.00125000
901, 0.00000000, 0.01833333, 0.00125000
902, 0.00166667, 0.01833333, 0.00125000
903, 0.00333333, 0.01833333, 0.00125000
904, 0.00500000, 0.01833333, 0.00125000
905, 0.00666667, 0.01833333, 0.00125000
906, 0.00833333, 0.01833333, 0.00125000
907, 0.01000000, 0.01833333, 0.00125000
908, 0.01166667, 0.01833333, 0.00125000
909, 0.01333333, 0.01833333, 0.00125000
910, 0.01500000, 0.01833333, 0.00125000
911, 0.01666667, 0.01833333, 0.00125000
912, 0.01833333, 0.01833333, 0.00125000
913, 0.02000000, 0.01833333, 0.00125000
914, 0.02166667, 0.01833333, 0.00125000
915, 0.02333333, 0.01833333, 0.00125000
916, 0.02500000, 0.01833333, 0.00125000
917, 0.02666667, 0.01833333, 0.00125000
918, 0.02833333, 0.01833333, 0.00125000
919, 0.03000000, 0.01833333, 0.00125000
920, 0.03166667, 0.01833333, 0.00125000
921, 0.03333333, 0.01833333, 0.00125000
922, 0.03500000, 0.01833333, 0.00125000
923, 0.03666667, 0.01833333, 0.00125000
924, 0.03833333, 0.01833333, 0.00125000
925, 0.04000000, 0.01833333, 0.00125000
926, 0.00000000, 0.02000000, 0.00125000
927, 0.00166667, 0.02000000, 0.00125000
928, 0.00333333, 0.02000000, 0.00125000
929, 0.00500000, 0.02000000, 0.00125000
930, 0.00666667, 0.02000000, 0.00125000
931, 0.00833333, 0.02000000, 0.00125000
932, 0.01000000, 0.02000000, 0.00125000
933, 0.01166667, 0.02000000, 0.00125000
934, 0.01333333, 0.02000000, 0.00125000
935, 0.01500000, 0.02000000, 0.00125000
936, 0.01666667, 0.02000000, 0.00125000
937, 0.01833333, 0.02000000, 0.00125000
938, 0.02000000, 0.02000000, 0.00125000
939, 0.02166667, 0.02000000, 0.00125000
940, 0.02333333, 0.02000000, 0.00125000
941, 0.02500000, 0.02000000, 0.00125000
942, 0.02666667, 0.02000000, 0.00125000
943, 0.02833333, 0.02000000, 0.00125000
944, 0.03000000, 0.02000000, 0.00125000
945, 0.03166667, 0.02000000, 0.00125000
946, 0.03333333, 0.02000000, 0.00125000
947, 0.03500000, 0.02000000, 0.00125000
948, 0.03666667, 0.02000000, 0.00125000
949, 0.03833333, 0.02000000, 0.00125000
950, 0.04000000, 0.02000000, 0.00125000
951, 0.00000000, 0.02166667, 0.00125000
952, 0.00166667, 0.02166667, 0.00125000
953, 0.00333333, 0.02166667, 0.00125000
954, 0.00500000, 0.02166667, 0.00125000
955, 0.00666667, 0.02166667, 0.00125000
956, 0.00833333, 0.02166667, 0.00125000
957, 0.01000000, 0.02166667, 0.00125000
958, 0.01166667, 0.02166667, 0.00125000
959, 0.01333333, 0.02166667, 0.00125000
960, 0.01500000, 0.02166667, 0.00125000
961, 0.01666667, 0.02166667, 0.00125000
962, 0.01833333, 0.02166667, 0.00125000
963, 0.02000000, 0.02166667, 0.00125000
964, 0.02166667, 0.02166667, 0.00125000
965, 0.02333333, 0.02166667, 0.00125000
966, 0.02500000, 0.02166667, 0.00125000
967, 0.02666667, 0.02166667, 0.00125000
968, 0.02833333, 0.02166667, 0.00125000
969, 0.03000000, 0.02166667, 0.00125000
970, 0.03166667, 0.02166667, 0.00125000
971, 0.03333333, 0.02166667, 0.00125000
972, 0.03500000, 0.02166667, 0.00125000
973, 0.03666667, 0.02166667, 0.00125000
974, 0.03833333, 0.02166667, 0.00125000
975, 0.04000000, 0.02166667, 0.00125000
976, 0.00000000, 0.02333333, 0.00125000
977, 0.00166667, 0.02333333, 0.00125000
978, 0.00333333, 0.02333333, 0.00125000
979, 0.00500000, 0.02333333, 0.00125000
980, 0.00666667, 0.02333333, 0.00125000
981, 0.00833333, 0.02333333, 0.00125000
982, 0.01000000, 0.02333333, 0.00125000
983, 0.01166667, 0.02333333, 0.00125000
984, 0.01333333, 0.02333333, 0.00125000
985, 0.01500000, 0.02333333, 0.00125000
986, 0.01666667, 0.02333333, 0.00125000
987, 0.01833333, 0.02333333, 0.00125000
988, 0.02000000, 0.02333333, 0.00125000
989, 0.02166667, 0.02333333, 0.00125000
990, 0.02333333, 0.02333333, 0.00125000
991, 0.02500000, 0.02333333, 0.00125000
992, 0.02666667, 0.02333333, 0.00125000
993, 0.02833333, 0.02333333, 0.00125000
994, 0.03000000, 0.02333333, 0.00125000
995, 0.03166667, 0.02333333, 0.00125000
996, 0.03333333, 0.02333333, 0.00125000
997, 0.03500000, 0.02333333, 0.00125000
998, 0.03666667, 0.02333333, 0.00125000
999, 0.03833333, 0.02333333, 0.00125000
1000, 0.04000000, 0.02333333, 0.00125000
1001, 0.00000000, 0.02500000, 0.00125000
1002, 0.00166667, 0.02500000, 0.00125000
1003, 0.00333333, 0.02500000, 0.00125000
1004, 0.00500000, 0.02500000, 0.00125000
1005, 0.00666667, 0.02500000, 0.00125000
1006, 0.00833333, 0.02500000, 0.00125000
1007, 0.01000000, 0.02500000, 0.00125000
1008, 0.01166667, 0.02500000, 0.00125000
1009, 0.01333333, 0.02500000, 0.00125000
1010, 0.01500000, 0.02500000, 0.00125000
1011, 0.01666667, 0.02500000, 0.00125000
1012, 0.01833333, 0.02500000, 0.00125000
1013, 0.02000000, 0.02500000, 0.00125000
1014, 0.02166667, 0.02500000, 0.00125000
1015, 0.02333333, 0.02500000, 0.00125000
1016, 0.02500000, 0.02500000, 0.00125000
1017, 0.02666667, 0.02500000, 0.00125000
1018, 0.02833333, 0.02500000, 0.00125000
1019, 0.03000000, 0.02500000, 0.00125000
1020, 0.03166667, 0.02500000, 0.00125000
1021, 0.03333333, 0.02500000, 0.00125000
1022, 0.03500000, 0.02500000, 0.00125000
1023, 0.03666667, 0.02500000, 0.00125000
1024, 0.03833333, 0.02500000, 0.00125000
1025, 0.04000000, 0.02500000, 0.00125000
1026, 0.00000000, 0.02666667, 0.00125000
1027, 0.00166667, 0.02666667, 0.00125000
1028, 0.00333333, 0.02666667, 0.00125000
1029, 0.00500000, 0.02666667, 0.00125000
1030, 0.00666667, 0.02666667, 0.00125000
1031, 0.00833333, 0.02666667, 0.00125000
1032, 0.01000000, 0.02666667, 0.00125000
1033, 0.01166667, 0.02666667, 0.00125000
1034, 0.01333333, 0.02666667, 0.00125000
1035, 0.01500000, 0.02666667, 0.00125000
1036, 0.01666667, 0.02666667, 0.00125000
1037, 0.01833333, 0.02666667, 0.00125000
1038, 0.02000000, 0.02666667, 0.00125000
1039, 0.02166667, 0.02666667, 0.00125000
1040, 0.02333333, 0.02666667, 0.00125000
1041, 0.02500000, 0.02666667, 0.00125000
1042, 0.02666667, 0.02666667, 0.00125000
1043, 0.02833333, 0.02666667, 0.00125000
1044, 0.03000000, 0.02666667, 0.00125000
1045, 0.03166667, 0.02666667, 0.00125000
1046, 0.03333333, 0.02666667, 0.00125000
1047, 0.03500000, 0.02666667, 0.00125000
1048, 0.03666667, 0.02666667, 0.00125000
1049, 0.03833333, 0.02666667, 0.00125000
1050, 0.04000000, 0.02666667, 0.00125000
1051, 0.00000000, 0.02833333, 0.00125000
1052, 0.00166667, 0.02833333, 0.00125000
1053, 0.00333333, 0.02833333, 0.00125000
1054, 0.00500000, 0.02833333, 0.00125000
1055, 0.00666667, 0.02833333, 0.00125000
1056, 0.00833333, 0.02833333, 0.00125000
1057, 0.01000000, 0.02833333, 0.00125000
1058, 0.01166667, 0.02833333, 0.00125000
1059, 0.01333333, 0.02833333, 0.00125000
1060, 0.01500000, 0.02833333, 0.00125000
1061, 0.01666667, 0.02833333, 0.00125000
1062, 0.01833333, 0.02833333, 0.00125000
1063, 0.02000000, 0.02833333, 0.00125000
1064, 0.02166667, 0.02833333, 0.00125000
1065, 0.02333333, 0.02833333, 0.00125000
1066, 0.02500000, 0.02833333, 0.00125000
1067, 0.02666667, 0.02833333, 0.00125000
1068, 0.02833333, 0.02833333, 0.00125000
1069, 0.03000000, 0.02833333, 0.00125000
1070, 0.03166667, 0.02833333, 0.00125000
1071, 0.03333333, 0.02833333, 0.00125000
1072, 0.03500000, 0.02833333, 0.00125000
1073, 0.03666667, 0.02833333, 0.00125000
1074, 0.03833333, 0.02833333, 0.00125000
1075, 0.04000000, 0.02833333, 0.00125000
1076, 0.00000000, 0.03000000, 0.00125000
1077, 0.00166667, 0.03000000, 0.00125000
1078, 0.00333333, 0.03000000, 0.00125000
1079, 0.00500000, 0.03000000, 0.00125000
1080, 0.00666667, 0.03000000, 0.00125000
1081, 0.00833333, 0.03000000, 0.00125000
1082, 0.01000000, 0.03000000, 0.00125000
1083, 0.01166667, 0.03000000, 0.00125000
1084, 0.01333333, 0.03000000, 0.00125000
1085, 0.01500000, 0.03000000, 0.00125000
1086, 0.01666667, 0.03000000, 0.00125000
1087, 0.01833333, 0.03000000, 0.00125000
1088, 0.02000000, 0.03000000, 0.00125000
1089, 0.02166667, 0.03000000, 0.00125000
1090, 0.02333333, 0.03000000, 0.00125000
1091, 0.02500000, 0.03000000, 0.00125000
1092, 0.02666667, 0.03000000, 0.00125000
1093, 0.02833333, 0.03000000, 0.00125000
1094, 0.03000000, 0.03000000, 0.00125000
1095, 0.03166667, 0.03000000, 0.00125000
1096, 0.03333333, 0.03000000, 0.00125000
1097, 0.03500000, 0.03000000, 0.00125000
1098, 0.03666667, 0.03000000, 0.00125000
1099, 0.03833333, 0.03000000, 0.00125000
1100, 0.04000000, 0.03000000, 0.00125000
1101, 0.00000000, 0.03166667, 0.00125000
1102, 0.00166667, 0.03166667, 0.00125000
1103, 0.00333333, 0.03166667, 0.00125000
1104, 0.00500000, 0.03166667, 0.00125000
1105, 0.00666667, 0.03166667, 0.00125000
1106, 0.00833333, 0.03166667, 0.00125000
1107, 0.01000000, 0.03166667, 0.00125000
1108, 0.01166667, 0.03166667, 0.00125000
1109, 0.01333333, 0.03166667, 0.00125000
1110, 0.01500000, 0.03166667, 0.00125000
1111, 0.01666667, 0.03166667, 0.00125000
1112, 0.01833333, 0.03166667, 0.00125000
1113, 0.02000000, 0.03166667, 0.00125000
1114, 0.02166667, 0.03166667, 0.00125000
1115, 0.02333333, 0.03166667, 0.00125000
1116, 0.02500000, 0.03166667, 0.00125000
1117, 0.02666667, 0.03166667, 0.00125000
1118, 0.02833333, 0.03166667, 0.00125000
1119, 0.03000000, 0.03166667, 0.00125000
1120, 0.03166667, 0.03166667, 0.00125000
1121, 0.03333333, 0.03166667, 0.00125000
1122, 0.03500000, 0.03166667, 0.00125000
1123, 0.03666667, 0.03166667, 0.00125000
1124, 0.03833333, 0.03166667, 0.00125000
1125, 0.04000000, 0.03166667, 0.00125000
1126, 0.00000000, 0.03333333, 0.00125000
1127, 0.00166667, 0.03333333, 0.00125000
1128, 0.00333333, 0.03333333, 0.00125000
1129, 0.00500000, 0.03333333, 0.00125000
1130, 0.00666667, 0.03333333, 0.00125000
1131, 0.00833333, 0.03333333, 0.00125000
1132, 0.01000000, 0.03333333, 0.00125000
1133, 0.01166667, 0.03333333, 0.00125000
1134, 0.01333333, 0.03333333, 0.00125000
1135, 0.01500000, 0.03333333, 0.00125000
1136, 0.01666667, 0.03333333, 0.00125000
1137, 0.01833333, 0.03333333, 0.00125000
1138, 0.02000000, 0.03333333, 0.00125000
1139, 0.02166667, 0.03333333, 0.00125000
1140, 0.02333333, 0.03333333, 0.00125000
1141, 0.02500000, 0.03333333, 0.00125000
1142, 0.02666667, 0.03333333, 0.00125000
1143, 0.02833333, 0.03333333, 0.00125000
1144, 0.03000000, 0.03333333, 0.00125000
1145, 0.03166667, 0.03333333, 0.00125000
1146, 0.03333333, 0.03333333, 0.00125000
1147, 0.03500000, 0.03333333, 0.00125000
1148, 0.03666667, 0.03333333, 0.00125000
1149, 0.03833333, 0.03333333, 0.00125000
1150, 0.04000000, 0.03333333, 0.00125000
1151, 0.00000000, 0.03500000, 0.00125000
1152, 0.00166667, 0.03500000, 0.00125000
1153, 0.00333333, 0.03500000, 0.00125000
1154, 0.00500000, 0.03500000, 0.00125000
1155, 0.00666667, 0.03500000, 0.00125000
1156, 0.00833333, 0.03500000, 0.00125000
1157, 0.01000000, 0.03500000, 0.00125000
1158, 0.01166667, 0.03500000, 0.00125000
1159, 0.01333333, 0.03500000, 0.00125000
1160, 0.01500000, 0.03500000, 0.00125000
1161, 0.01666667, 0.03500000, 0.00125000
1162, 0.01833333, 0.03500000, 0.00125000
1163, 0.02000000, 0.03500000, 0.00125000
1164, 0.02166667, 0.03500000, 0.00125000
1165, 0.02333333, 0.03500000, 0.00125000
1166, 0.02500000, 0.03500000, 0.00125000
1167, 0.02666667, 0.03500000, 0.00125000
1168, 0.02833333, 0.03500000, 0.00125000
1169, 0.03000000, 0.03500000, 0.00125000
1170, 0.03166667, 0.03500000, 0.00125000
1171, 0.03333333, 0.03500000, 0.00125000
1172, 0.03500000, 0.03500000, 0.00125000
1173, 0.03666667, 0.03500000, 0.00125000
1174, 0.03833333, 0.03500000, 0.00125000
1175, 0.04000000, 0.03500000, 0.00125000
1176, 0.00000000, 0.03666667, 0.00125000
1177, 0.00166667, 0.03666667, 0.00125000
1178, 0.00333333, 0.03666667, 0.00125000
1179, 0.00500000, 0.03666667, 0.00125000
1180, 0.00666667, 0.03666667, 0.00125000
1181, 0.00833333, 0.03666667, 0.00125000
1182, 0.01000000, 0.03666667, 0.00125000
1183, 0.01166667, 0.03666667, 0.00125000
1184, 0.01333333, 0.03666667, 0.00125000
1185, 0.01500000, 0.03666667, 0.00125000
1186, 0.01666667, 0.03666667, 0.00125000
1187, 0.01833333, 0.03666667, 0.00125000
1188, 0.02000000, 0.03666667, 0.00125000
1189, 0.02166667, 0.03666667, 0.00125000
1190, 0.02333333, 0.03666667, 0.00125000
1191, 0.02500000, 0.03666667, 0.00125000
1192, 0.02666667, 0.03666667, 0.00125000
1193, 0.02833333, 0.03666667, 0.00125000
1194, 0.03000000, 0.03666667, 0.00125000
1195, 0.03166667, 0.03666667, 0.00125000
1196, 0.03333333, 0.03666667, 0.00125000
1197, 0.03500000, 0.03666667, 0.00125000
1198, 0.03666667, 0.03666667, 0.00125000
1199, 0.03833333, 0.03666667, 0.00125000
1200, 0.04000000, 0.03666667, 0.00125000
1201, 0.00000000, 0.03833333, 0.00125000
1202, 0.00166667, 0.03833333, 0.00125000
1203, 0.00333333, 0.03833333, 0.00125000
1204, 0.00500000, 0.03833333, 0.00125000
1205, 0.00666667, 0.03833333, 0.00125000
1206, 0.00833333, 0.03833333, 0.00125000
1207, 0.01000000, 0.03833333, 0.00125000
1208, 0.01166667, 0.03833333, 0.00125000
1209, 0.01333333, 0.03833333, 0.00125000
1210, 0.01500000, 0.03833333, 0.00125000
1211, 0.01666667, 0.03833333, 0.00125000
1212, 0.01833333, 0.03833333, 0.00125000
1213, 0.02000000, 0.03833333, 0.00125000
1214, 0.02166667, 0.03833333, 0.00125000
1215, 0.02333333, 0.03833333, 0.00125000
1216, 0.02500000, 0.03833333, 0.00125000
1217, 0.02666667, 0.03833333, 0.00125000
1218, 0.02833333, 0.03833333, 0.00125000
1219, 0.03000000, 0.03833333, 0.00125000
1220, 0.03166667, 0.03833333, 0.00125000
1221, 0.03333333, 0.03833333, 0.00125000
1222, 0.03500000, 0.03833333, 0.00125000
1223, 0.03666667, 0.03833333, 0.00125000
1224, 0.03833333, 0.03833333, 0.00125000
1225, 0.04000000, 0.03833333, 0.00125000
1226, 0.00000000, 0.04000000, 0.00125000
1227, 0.00166667, 0.04000000, 0.00125000
1228, 0.00333333, 0.04000000, 0.00125000
1229, 0.00500000, 0.04000000, 0.00125000
1230, 0.00666667, 0.04000000, 0.00125000
1231, 0.00833333, 0.04000000, 0.00125000
1232, 0.01000000, 0.04000000, 0.00125000
1233, 0.01166667, 0.04000000, 0.00125000
1234, 0.01333333, 0.04000000, 0.00125000
1235, 0.01500000, 0.04000000, 0.00125000
1236, 0.01666667, 0.04000000, 0.00125000
1237, 0.01833333, 0.04000000, 0.00125000
1238, 0.02000000, 0.04000000, 0.00125000
1239, 0.02166667, 0.04000000, 0.00125000
1240, 0.02333333, 0.04000000, 0.00125000
1241, 0.02500000, 0.04000000, 0.00125000
1242, 0.02666667, 0.04000000, 0.00125000
1243, 0.02833333, 0.04000000, 0.00125000
1244, 0.03000000, 0.04000000, 0.00125000
1245, 0.03166667, 0.04000000, 0.00125000
1246, 0.03333333, 0.04000000, 0.00125000
1247, 0.03500000, 0.04000000, 0.00125000
1248, 0.03666667, 0.04000000, 0.00125000
1249, 0.03833333, 0.04000000, 0.00125000
1250, 0.04000000, 0.04000000, 0.00125000
1251, 0.00000000, 0.00000000, 0.00250000
1252, 0.00166667, 0.00000000, 0.00250000
1253, 0.00333333, 0.00000000, 0.00250000
1254, 0.00500000, 0.00000000, 0.00250000
1255, 0.00666667, 0.00000000, 0.00250000
1256, 0.00833333, 0.00000000, 0.00250000
1257, 0.01000000, 0.00000000, 0.00250000
1258, 0.01166667, 0.00000000, 0.00250000
1259, 0.01333333, 0.00000000, 0.00250000
1260, 0.01500000, 0.00000000, 0.00250000
1261, 0.01666667, 0.00000000, 0.00250000
1262, 0.01833333, 0.00000000, 0.00250000
1263, 0.02000000, 0.00000000, 0.00250000
1264, 0.02166667, 0.00000000, 0.00250000
1265, 0.02333333, 0.00000000, 0.00250000
1266, 0.02500000, 0.00000000, 0.00250000
1267, 0.02666667, 0.00000000, 0.00250000
1268, 0.02833333, 0.00000000, 0.00250000
1269, 0.03000000, 0.00000000, 0.00250000
1270, 0.03166667, 0.00000000, 0.00250000
1271, 0.03333333, 0.00000000, 0.00250000
1272, 0.03500000, 0.00000000, 0.00250000
1273, 0.03666667, 0.00000000, 0.00250000
1274, 0.03833333, 0.00000000, 0.00250000
1275, 0.04000000, 0.00000000, 0.00250000
1276, 0.00000000, 0.00166667, 0.00250000
1277, 0.00166667, 0.00166667, 0.00250000
1278, 0.00333333, 0.00166667, 0.00250000
1279, 0.00500000, 0.00166667, 0.00250000
1280, 0.00666667, 0.00166667, 0.00250000
1281, 0.00833333, 0.00166667, 0.00250000
1282, 0.01000000, 0.00166667, 0.00250000
1283, 0.01166667, 0.00166667, 0.00250000
1284, 0.01333333, 0.00166667, 0.00250000
1285, 0.01500000, 0.00166667, 0.00250000
1286, 0.01666667, 0.00166667, 0.00250000
1287, 0.01833333, 0.00166667, 0.00250000
1288, 0.02000000, 0.00166667, 0.00250000
1289, 0.02166667, 0.00166667, 0.00250000
1290, 0.02333333, 0.00166667, 0.00250000
1291, 0.02500000, 0.00166667, 0.00250000
1292, 0.02666667, 0.00166667, 0.00250000
1293, 0.02833333, 0.00166667, 0.00250000
1294, 0.03000000, 0.00166667, 0.00250000
1295, 0.03166667, 0.00166667, 0.00250000
1296, 0.03333333, 0.00166667, 0.00250000
1297, 0.03500000, 0.00166667, 0.00250000
1298, 0.03666667, 0.00166667, 0.00250000
1299, 0.03833333, 0.00166667, 0.00250000
1300, 0.04000000, 0.00166667, 0.00250000
1301, 0.00000000, 0.00333333, 0.00250000
1302, 0.00166667, 0.00333333, 0.00250000
1303, 0.00333333, 0.00333333, 0.00250000
1304, 0.00500000, 0.00333333, 0.00250000
1305, 0.00666667, 0.00333333, 0.00250000
1306, 0.00833333, 0.00333333, 0.00250000
1307, 0.01000000, 0.00333333, 0.00250000
1308, 0.01166667, 0.00333333, 0.00250000
1309, 0.01333333, 0.00333333, 0.00250000
1310, 0.01500000, 0.00333333, 0.00250000
1311, 0.01666667, 0.00333333, 0.00250000
1312, 0.01833333, 0.00333333, 0.00250000
1313, 0.02000000, 0.00333333, 0.00250000
1314, 0.02166667, 0.00333333, 0.00250000
1315, 0.02333333, 0.00333333, 0.00250000
1316, 0.02500000, 0.00333333, 0.00250000
1317, 0.02666667, 0.00333333, 0.00250000
1318, 0.02833333, 0.00333333, 0.00250000
1319, 0.03000000, 0.00333333, 0.00250000
1320, 0.03166667, 0.00333333, 0.00250000
1321, 0.03333333, 0.00333333, 0.00250000
1322, 0.03500000, 0.00333333, 0.00250000
1323, 0.03666667, 0.00333333, 0.00250000
1324, 0.03833333, 0.00333333, 0.00250000
1325, 0.04000000, 0.00333333, 0.00250000
1326, 0.00000000, 0.00500000, 0.00250000
1327, 0.00166667, 0.00500000, 0.00250000
1328, 0.00333333, 0.00500000, 0.00250000
1329, 0.00500000, 0.00500000, 0.00250000
1330, 0.00666667, 0.00500000, 0.00250000
1331, 0.00833333, 0.00500000, 0.00250000
1332, 0.01000000, 0.00500000, 0.00250000
1333, 0.01166667, 0.00500000, 0.00250000
1334, 0.01333333, 0.00500000, 0.00250000
1335, 0.01500000, 0.00500000, 0.00250000
1336, 0.01666667, 0.00500000, 0.00250000
1337, 0.01833333, 0.00500000, 0.00250000
1338, 0.02000000, 0.00500000, 0.00250000
1339, 0.02166667, 0.00500000, 0.00250000
1340, 0.02333333, 0.00500000, 0.00250000
1341, 0.02500000, 0.00500000, 0.00250000
1342, 0.02666667, 0.00500000, 0.00250000
1343, 0.02833333, 0.00500000, 0.00250000
1344, 0.03000000, 0.00500000, 0.00250000
1345, 0.03166667, 0.00500000, 0.00250000
1346, 0.03333333, 0.00500000, 0.00250000
1347, 0.03500000, 0.00500000, 0.00250000
1348, 0.03666667, 0.00500000, 0.00250000
1349, 0.03833333, 0.00500000, 0.00250000
1350, 0.04000000, 0.00500000, 0.00250000
1351, 0.00000000, 0.00666667, 0.00250000
1352, 0.00166667, 0.00666667, 0.00250000
1353, 0.00333333, 0.00666667, 0.00250000
1354, 0.00500000, 0.00666667, 0.00250000
1355, 0.00666667, 0.00666667, 0.00250000
1356, 0.00833333, 0.00666667, 0.00250000
1357, 0.01000000, 0.00666667, 0.00250000
1358, 0.01166667, 0.00666667, 0.00250000
1359, 0.01333333, 0.00666667, 0.00250000
1360, 0.01500000, 0.00666667, 0.00250000
1361, 0.01666667, 0.00666667, 0.00250000
1362, 0.01833333, 0.00666667, 0.00250000
1363, 0.02000000, 0.00666667, 0.00250000
1364, 0.02166667, 0.00666667, 0.00250000
1365, 0.02333333, 0.00666667, 0.00250000
1366, 0.02500000, 0.00666667, 0.00250000
1367, 0.02666667, 0.00666667, 0.00250000
1368, 0.02833333, 0.00666667, 0.00250000
1369, 0.03000000, 0.00666667, 0.00250000
1370, 0.03166667, 0.00666667, 0.00250000
1371, 0.03333333, 0.00666667, 0.00250000
1372, 0.03500000, 0.00666667, 0.00250000
1373, 0.03666667, 0.00666667, 0.00250000
1374, 0.03833333, 0.00666667, 0.00250000
1375, 0.04000000, 0.00666667, 0.00250000
1376, 0.00000000, 0.00833333, 0.00250000
1377, 0.00166667, 0.00833333, 0.00250000
1378, 0.00333333, 0.00833333, 0.00250000
1379, 0.00500000, 0.00833333, 0.00250000
1380, 0.00666667, 0.00833333, 0.00250000
1381, 0.00833333, 0.00833333, 0.00250000
1382, 0.01000000, 0.00833333, 0.00250000
1383, 0.01166667, 0.00833333, 0.00250000
1384, 0.01333333, 0.00833333, 0.00250000
1385, 0.01500000, 0.00833333, 0.00250000
1386, 0.01666667, 0.00833333, 0.00250000
1387, 0.01833333, 0.00833333, 0.00250000
1388, 0.02000000, 0.00833333, 0.00250000
1389, 0.02166667, 0.00833333, 0.00250000
1390, 0.02333333, 0.00833333, 0.00250000
1391, 0.02500000, 0.00833333, 0.00250000
1392, 0.02666667, 0.00833333, 0.00250000
1393, 0.02833333, 0.00833333, 0.00250000
1394, 0.03000000, 0.00833333, 0.00250000
1395, 0.03166667, 0.00833333, 0.00250000
1396, 0.03333333, 0.00833333, 0.00250000
1397, 0.03500000, 0.00833333, 0.00250000
1398, 0.03666667, 0.00833333, 0.00250000
1399, 0.03833333, 0.00833333, 0.00250000
1400, 0.04000000, 0.00833333, 0.00250000
1401, 0.00000000, 0.01000000, 0.00250000
1402, 0.00166667, 0.01000000, 0.00250000
1403, 0.00333333, 0.01000000, 0.00250000
1404, 0.00500000, 0.01000000, 0.00250000
1405, 0.00666667, 0.01000000, 0.00250000
1406, 0.00833333, 0.01000000, 0.00250000
1407, 0.01000000, 0.01000000, 0.00250000
1408, 0.01166667, 0.01000000, 0.00250000
1409, 0.01333333, 0.01000000, 0.00250000
1410, 0.01500000, 0.01000000, 0.00250000
1411, 0.01666667, 0.01000000, 0.00250000
1412, 0.01833333, 0.01000000, 0.00250000
1413, 0.02000000, 0.01000000, 0.00250000
1414, 0.02166667, 0.01000000, 0.00250000
1415, 0.02333333, 0.01000000, 0.00250000
1416, 0.02500000, 0.01000000, 0.00250000
1417, 0.02666667, 0.01000000, 0.00250000
1418, 0.02833333, 0.01000000, 0.00250000
1419, 0.03000000, 0.01000000, 0.00250000
1420, 0.03166667, 0.01000000, 0.00250000
1421, 0.03333333, 0.01000000, 0.00250000
1422, 0.03500000, 0.01000000, 0.00250000
1423, 0.03666667, 0.01000000, 0.00250000
1424, 0.03833333, 0.01000000, 0.00250000
1425, 0.04000000, 0.01000000, 0.00250000
1426, 0.00000000, 0.01166667, 0.00250000
1427, 0.00166667, 0.01166667, 0.00250000
1428, 0.00333333, 0.01166667, 0.00250000
1429, 0.00500000, 0.01166667, 0.00250000
1430, 0.00666667, 0.01166667, 0.00250000
1431, 0.00833333, 0.01166667, 0.00250000
1432, 0.01000000, 0.01166667, 0.00250000
1433, 0.01166667, 0.01166667, 0.00250000
1434, 0.01333333, 0.01166667, 0.00250000
1435, 0.01500000, 0.01166667, 0.00250000
1436, 0.01666667, 0.01166667, 0.00250000
1437, 0.01833333, 0.01166667, 0.00250000
1438, 0.02000000, 0.01166667, 0.00250000
1439, 0.02166667, 0.01166667, 0.00250000
1440, 0.02333333, 0.01166667, 0.00250000
1441, 0.02500000, 0.01166667, 0.00250000
1442, 0.02666667, 0.01166667, 0.00250000
1443, 0.02833333, 0.01166667, 0.00250000
1444, 0.03000000, 0.01166667, 0.00250000
1445, 0.03166667, 0.01166667, 0.00250000
1446, 0.03333333, 0.01166667, 0.00250000
1447, 0.03500000, 0.01166667, 0.00250000
1448, 0.03666667, 0.01166667, 0.00250000
1449, 0.03833333, 0.01166667, 0.00250000
1450, 0.04000000, 0.01166667, 0.00250000
1451, 0.00000000, 0.01333333, 0.00250000
1452, 0.00166667, 0.01333333, 0.00250000
1453, 0.00333333, 0.01333333, 0.00250000
1454, 0.00500000, 0.01333333, 0.00250000
1455, 0.00666667, 0.01333333, 0.00250000
1456, 0.00833333, 0.01333333, 0.00250000
1457, 0.01000000, 0.01333333, 0.00250000
1458, 0.01166667, 0.01333333, 0.00250000
1459, 0.01333333, 0.01333333, 0.00250000
1460, 0.01500000, 0.01333333, 0.00250000
1461, 0.01666667, 0.01333333, 0.00250000
1462, 0.01833333, 0.01333333, 0.00250000
1463, 0.02000000, 0.01333333, 0.00250000
1464, 0.02166667, 0.01333333, 0.00250000
1465, 0.02333333, 0.01333333, 0.00250000
1466, 0.02500000, 0.01333333, 0.00250000
1467, 0.02666667, 0.01333333, 0.00250000
1468, 0.02833333, 0.01333333, 0.00250000
1469, 0.03000000, 0.01333333, 0.00250000
1470, 0.03166667, 0.01333333, 0.00250000
1471, 0.03333333, 0.01333333, 0.00250000
1472, 0.03500000, 0.01333333, 0.00250000
1473, 0.03666667, 0.01333333, 0.00250000
1474, 0.03833333, 0.01333333, 0.00250000
1475, 0.04000000, 0.01333333, 0.00250000
1476, 0.00000000, 0.01500000, 0.00250000
1477, 0.00166667, 0.01500000, 0.00250000
1478, 0.00333333, 0.01500000, 0.00250000
1479, 0.00500000, 0.01500000, 0.00250000
1480, 0.00666667, 0.01500000, 0.00250000
1481, 0.00833333, 0.01500000, 0.00250000
1482, 0.01000000, 0.01500000, 0.00250000
1483, 0.01166667, 0.01500000, 0.00250000
1484, 0.01333333, 0.01500000, 0.00250000
1485, 0.01500000, 0.01500000, 0.00250000
1486, 0.01666667, 0.01500000, 0.00250000
1487, 0.01833333, 0.01500000, 0.00250000
1488, 0.02000000, 0.01500000, 0.00250000
1489, 0.02166667, 0.01500000, 0.00250000
1490, 0.02333333, 0.01500000, 0.00250000
1491, 0.02500000, 0.01500000, 0.00250000
1492, 0.02666667, 0.01500000, 0.00250000
1493, 0.02833333, 0.01500000, 0.00250000
1494, 0.03000000, 0.01500000, 0.00250000
1495, 0.03166667, 0.01500000, 0.00250000
1496, 0.03333333, 0.01500000, 0.00250000
1497, 0.03500000, 0.01500000, 0.00250000
1498, 0.03666667, 0.01500000, 0.00250000
1499, 0.03833333, 0.01500000, 0.00250000
1500, 0.04000000, 0.01500000, 0.00250000
1501, 0.00000000, 0.01666667, 0.00250000
1502, 0.00166667, 0.01666667, 0.00250000
1503, 0.00333333, 0.01666667, 0.00250000
1504, 0.00500000, 0.01666667, 0.00250000
1505, 0.00666667, 0.01666667, 0.00250000
1506, 0.00833333, 0.01666667, 0.00250000
1507, 0.01000000, 0.01666667, 0.00250000
1508, 0.01166667, 0.01666667, 0.00250000
1509, 0.01333333, 0.01666667, 0.00250000
1510, 0.01500000, 0.01666667, 0.00250000
1511, 0.01666667, 0.01666667, 0.00250000
1512, 0.01833333, 0.01666667, 0.00250000
1513, 0.02000000, 0.01666667, 0.00250000
1514, 0.02166667, 0.01666667, 0.00250000
1515, 0.02333333, 0.01666667, 0.00250000
1516, 0.02500000, 0.01666667, 0.00250000
1517, 0.02666667, 0.01666667, 0.00250000
1518, 0.02833333, 0.01666667, 0.00250000
1519, 0.03000000, 0.01666667, 0.00250000
1520, 0.03166667, 0.01666667, 0.00250000
1521, 0.03333333, 0.01666667, 0.00250000
1522, 0.03500000, 0.01666667, 0.00250000
1523, 0.03666667, 0.01666667, 0.00250000
1524, 0.03833333, 0.01666667, 0.00250000
1525, 0.04000000, 0.01666667, 0.00250000
1526, 0.00000000, 0.01833333, 0.00250000
1527, 0.00166667, 0.01833333, 0.00250000
1528, 0.00333333, 0.01833333, 0.00250000
1529, 0.00500000, 0.01833333, 0.00250000
1530, 0.00666667, 0.01833333, 0.00250000
1531, 0.00833333, 0.01833333, 0.00250000
1532, 0.01000000, 0.01833333, 0.00250000
1533, 0.01166667, 0.01833333, 0.00250000
1534, 0.01333333, 0.01833333, 0.00250000
1535, 0.01500000, 0.01833333, 0.00250000
1536, 0.01666667, 0.01833333, 0.00250000
1537, 0.01833333, 0.01833333, 0.00250000
1538, 0.02000000, 0.01833333, 0.00250000
1539, 0.02166667, 0.01833333, 0.00250000
1540, 0.02333333, 0.01833333, 0.00250000
1541, 0.02500000, 0.01833333, 0.00250000
1542, 0.02666667, 0.01833333, 0.00250000
1543, 0.02833333, 0.01833333, 0.00250000
1544, 0.03000000, 0.01833333, 0.00250000
1545, 0.03166667, 0.01833333, 0.00250000
1546, 0.03333333, 0.01833333, 0.00250000
1547, 0.03500000, 0.01833333, 0.00250000
1548, 0.03666667, 0.01833333, 0.00250000
1549, 0.03833333, 0.01833333, 0.00250000
1550, 0.04000000, 0.01833333, 0.00250000
1551, 0.00000000, 0.02000000, 0.00250000
1552, 0.00166667, 0.02000000, 0.00250000
1553, 0.00333333, 0.02000000, 0.00250000
1554, 0.00500000, 0.02000000, 0.00250000
1555, 0.00666667, 0.02000000, 0.00250000
1556, 0.00833333, 0.02000000, 0.00250000
1557, 0.01000000, 0.02000000, 0.00250000
1558, 0.01166667, 0.02000000, 0.00250000
1559, 0.01333333, 0.02000000, 0.00250000
1560, 0.01500000, 0.02000000, 0.00250000
1561, 0.01666667, 0.02000000, 0.00250000
1562, 0.01833333, 0.02000000, 0.00250000
1563, 0.02000000, 0.02000000, 0.00250000
1564, 0.02166667, 0.02000000, 0.00250000
1565, 0.02333333, 0.02000000, 0.00250000
1566, 0.02500000, 0.02000000, 0.00250000
1567, 0.02666667, 0.02000000, 0.00250000
1568, 0.02833333, 0.02000000, 0.00250000
1569, 0.03000000, 0.02000000, 0.00250000
1570, 0.03166667, 0.02000000, 0.00250000
1571, 0.03333333, 0.02000000, 0.00250000
1572, 0.03500000, 0.02000000, 0.00250000
1573, 0.03666667, 0.02000000, 0.00250000
1574, 0.03833333, 0.02000000, 0.00250000
1575, 0.04000000, 0.02000000, 0.00250000
1576, 0.00000000, 0.02166667, 0.00250000
1577, 0.00166667, 0.02166667, 0.00250000
1578, 0.00333333, 0.02166667, 0.00250000
1579, 0.00500000, 0.02166667, 0.00250000
1580, 0.00666667, 0.02166667, 0.00250000
1581, 0.00833333, 0.02166667, 0.00250000
1582, 0.01000000, 0.02166667, 0.00250000
1583, 0.01166667, 0.02166667, 0.00250000
1584, 0.01333333, 0.02166667, 0.00250000
1585, 0.01500000, 0.02166667, 0.00250000
1586, 0.01666667, 0.02166667, 0.00250000
1587, 0.01833333, 0.02166667, 0.00250000
1588, 0.02000000, 0.02166667, 0.00250000
1589, 0.02166667, 0.02166667, 0.00250000
1590, 0.02333333, 0.02166667, 0.00250000
1591, 0.02500000, 0.02166667, 0.00250000
1592, 0.02666667, 0.02166667, 0.00250000
1593, 0.02833333, 0.02166667, 0.00250000
1594, 0.03000000, 0.02166667, 0.00250000
1595, 0.03166667, 0.02166667, 0.00250000
1596, 0.03333333, 0.02166667, 0.00250000
1597, 0.03500000, 0.02166667, 0.00250000
1598, 0.03666667, 0.02166667, 0.00250000
1599, 0.03833333, 0.02166667, 0.00250000
1600, 0.04000000, 0.02166667, 0.00250000
1601, 0.00000000, 0.02333333, 0.00250000
1602, 0.00166667, 0.02333333, 0.00250000
1603, 0.00333333, 0.02333333, 0.00250000
1604, 0.00500000, 0.02333333, 0.00250000
1605, 0.00666667, 0.02333333, 0.00250000
1606, 0.00833333, 0.02333333, 0.00250000
1607, 0.01000000, 0.02333333, 0.00250000
1608, 0.01166667, 0.02333333, 0.00250000
1609, 0.01333333, 0.02333333, 0.00250000
1610, 0.01500000, 0.02333333, 0.00250000
1611, 0.01666667, 0.02333333, 0.00250000
1612, 0.01833333, 0.02333333, 0.00250000
1613, 0.02000000, 0.02333333, 0.00250000
1614, 0.02166667, 0.02333333, 0.00250000
1615, 0.02333333, 0.02333333, 0.00250000
1616, 0.02500000, 0.02333333, 0.00250000
1617, 0.02666667, 0.02333333, 0.00250000
1618, 0.02833333, 0.02333333, 0.00250000
1619, 0.03000000, 0.02333333, 0.00250000
1620, 0.03166667, 0.02333333, 0.00250000
1621, 0.03333333, 0.02333333, 0.00250000
1622, 0.03500000, 0.02333333, 0.00250000
1623, 0.03666667, 0.02333333, 0.00250000
1624, 0.03833333, 0.02333333, 0.00250000
1625, 0.04000000, 0.02333333, 0.00250000
1626, 0.00000000, 0.02500000, 0.00250000
1627, 0.00166667, 0.02500000, 0.00250000
1628, 0.00333333, 0.02500000, 0.00250000
1629, 0.00500000, 0.02500000, 0.00250000
1630, 0.00666667, 0.02500000, 0.00250000
1631, 0.00833333, 0.02500000, 0.00250000
1632, 0.01000000, 0.02500000, 0.00250000
1633, 0.01166667, 0.02500000, 0.00250000
1634, 0.01333333, 0.02500000, 0.00250000
1635, 0.01500000, 0.02500000, 0.00250000
1636, 0.01666667, 0.02500000, 0.00250000
1637, 0.01833333, 0.02500000, 0.00250000
1638, 0.02000000, 0.02500000, 0.00250000
1639, 0.02166667, 0.02500000, 0.00250000
1640, 0.02333333, 0.02500000, 0.00250000
1641, 0.02500000, 0.02500000, 0.00250000
1642, 0.02666667, 0.02500000, 0.00250000
1643, 0.02833333, 0.02500000, 0.00250000
1644, 0.03000000, 0.02500000, 0.00250000
1645, 0.03166667, 0.02500000, 0.00250000
1646, 0.03333333, 0.02500000, 0.00250000
1647, 0.03500000, 0.02500000, 0.00250000
1648, 0.03666667, 0.02500000, 0.00250000
1649, 0.03833333, 0.02500000, 0.00250000
1650, 0.04000000, 0.02500000, 0.00250000
1651, 0.00000000, 0.02666667, 0.00250000
1652, 0.00166667, 0.02666667, 0.00250000
1653, 0.00333333, 0.02666667, 0.00250000
1654, 0.00500000, 0.02666667, 0.00250000
1655, 0.00666667, 0.02666667, 0.00250000
1656, 0.00833333, 0.02666667, 0.00250000
1657, 0.01000000, 0.02666667, 0.00250000
1658, 0.01166667, 0.02666667, 0.00250000
1659, 0.01333333, 0.02666667, 0.00250000
1660, 0.01500000, 0.02666667, 0.00250000
1661, 0.01666667, 0.02666667, 0.00250000
1662, 0.01833333, 0.02666667, 0.00250000
1663, 0.02000000, 0.02666667, 0.00250000
1664, 0.02166667, 0.02666667, 0.00250000
1665, 0.02333333, 0.02666667, 0.00250000
1666, 0.02500000, 0.02666667, 0.00250000
1667, 0.02666667, 0.02666667, 0.00250000
1668, 0.02833333, 0.02666667, 0.00250000
1669, 0.03000000, 0.02666667, 0.00250000
1670, 0.03166667, 0.02666667, 0.00250000
1671, 0.03333333, 0.02666667, 0.00250000
1672, 0.03500000, 0.02666667, 0.00250000
1673, 0.03666667, 0.02666667, 0.00250000
1674, 0.03833333, 0.02666667, 0.00250000
1675, 0.04000000, 0.02666667, 0.00250000
1676, 0.00000000, 0.02833333, 0.00250000
1677, 0.00166667, 0.02833333, 0.00250000
1678, 0.00333333, 0.02833333, 0.00250000
1679, 0.00500000, 0.02833333, 0.00250000
1680, 0.00666667, 0.02833333, 0.00250000
1681, 0.00833333, 0.02833333, 0.00250000
1682, 0.01000000, 0.02833333, 0.00250000
1683, 0.01166667, 0.02833333, 0.00250000
1684, 0.01333333, 0.02833333, 0.00250000
1685, 0.01500000, 0.02833333, 0.00250000
1686, 0.01666667, 0.02833333, 0.00250000
1687, 0.01833333, 0.02833333, 0.00250000
1688, 0.02000000, 0.02833333, 0.00250000
1689, 0.02166667, 0.02833333, 0.00250000
1690, 0.02333333, 0.02833333, 0.00250000
1691, 0.02500000, 0.02833333, 0.00250000
1692, 0.02666667, 0.02833333, 0.00250000
1693, 0.02833333, 0.02833333, 0.00250000
1694, 0.03000000, 0.02833333, 0.00250000
1695, 0.03166667, 0.02833333, 0.00250000
1696, 0.03333333, 0.02833333, 0.00250000
1697, 0.03500000, 0.02833333, 0.00250000
1698, 0.03666667, 0.02833333, 0.00250000
1699, 0.03833333, 0.02833333, 0.00250000
1700, 0.04000000, 0.02833333, 0.00250000
1701, 0.00000000, 0.03000000, 0.00250000
1702, 0.00166667, 0.03000000, 0.00250000
1703, 0.00333333, 0.03000000, 0.00250000
1704, 0.00500000, 0.03000000, 0.00250000
1705, 0.00666667, 0.03000000, 0.00250000
1706, 0.00833333, 0.03000000, 0.00250000
1707, 0.01000000, 0.03000000, 0.00250000
1708, 0.01166667, 0.03000000, 0.00250000
1709, 0.01333333, 0.03000000, 0.00250000
1710, 0.01500000, 0.03000000, 0.00250000
1711, 0.01666667, 0.03000000, 0.00250000
1712, 0.01833333, 0.03000000, 0.00250000
1713, 0.02000000, 0.03000000, 0.00250000
1714, 0.02166667, 0.03000000, 0.00250000
1715, 0.02333333, 0.03000000, 0.00250000
1716, 0.02500000, 0.03000000, 0.00250000
1717, 0.02666667, 0.03000000, 0.00250000
1718, 0.02833333, 0.03000000, 0.00250000
1719, 0.03000000, 0.03000000, 0.00250000
1720, 0.03166667, 0.03000000, 0.00250000
1721, 0.03333333, 0.03000000, 0.00250000
1722, 0.03500000, 0.03000000, 0.00250000
1723, 0.03666667, 0.03000000, 0.00250000
1724, 0.03833333, 0.03000000, 0.00250000
1725, 0.04000000, 0.03000000, 0.00250000
1726, 0.00000000, 0.03166667, 0.00250000
1727, 0.00166667, 0.03166667, 0.00250000
1728, 0.00333333, 0.03166667, 0.00250000
1729, 0.00500000, 0.03166667, 0.00250000
1730, 0.00666667, 0.03166667, 0.00250000
1731, 0.00833333, 0.03166667, 0.00250000
1732, 0.01000000, 0.03166667, 0.00250000
1733, 0.01166667, 0.03166667, 0.00250000
1734, 0.01333333, 0.03166667, 0.00250000
1735, 0.01500000, 0.03166667, 0.00250000
1736, 0.01666667, 0.03166667, 0.00250000
1737, 0.01833333, 0.03166667, 0.00250000
1738, 0.02000000, 0.03166667, 0.00250000
1739, 0.02166667, 0.03166667, 0.00250000
1740, 0.02333333, 0.03166667, 0.00250000
1741, 0.02500000, 0.03166667, 0.00250000
1742, 0.02666667, 0.03166667, 0.00250000
1743, 0.02833333, 0.03166667, 0.00250000
1744, 0.03000000, 0.03166667, 0.00250000
1745, 0.03166667, 0.03166667, 0.00250000
1746, 0.03333333, 0.03166667, 0.00250000
1747, 0.03500000, 0.03166667, 0.00250000
1748, 0.03666667, 0.03166667, 0.00250000
1749, 0.03833333, 0.03166667, 0.00250000
1750, 0.04000000, 0.03166667, 0.00250000
1751, 0.00000000, 0.03333333, 0.00250000
1752, 0.00166667, 0.03333333, 0.00250000
1753, 0.00333333, 0.03333333, 0.00250000
1754, 0.00500000, 0.03333333, 0.00250000
1755, 0.00666667, 0.03333333, 0.00250000
1756, 0.00833333, 0.03333333, 0.00250000
1757, 0.01000000, 0.03333333, 0.00250000
1758, 0.01166667, 0.03333333, 0.00250000
1759, 0.01333333, 0.03333333, 0.00250000
1760, 0.01500000, 0.03333333, 0.00250000
1761, 0.01666667, 0.03333333, 0.00250000
1762, 0.01833333, 0.03333333, 0.00250000
1763, 0.02000000, 0.03333333, 0.00250000
1764, 0.02166667, 0.03333333, 0.00250000
1765, 0.02333333, 0.03333333, 0.00250000
1766, 0.02500000, 0.03333333, 0.00250000
1767, 0.02666667, 0.03333333, 0.00250000
1768, 0.02833333, 0.03333333, 0.00250000
1769, 0.03000000, 0.03333333, 0.00250000
1770, 0.03166667, 0.03333333, 0.00250000
1771, 0.03333333, 0.03333333, 0.00250000
1772, 0.03500000, 0.03333333, 0.00250000
1773, 0.03666667, 0.03333333, 0.00250000
1774, 0.03833333, 0.03333333, 0.00250000
1775, 0.04000000, 0.03333333, 0.00250000
1776, 0.00000000, 0.03500000, 0.00250000
1777, 0.00166667, 0.03500000, 0.00250000
1778, 0.00333333, 0.03500000, 0.00250000
1779, 0.00500000, 0.03500000, 0.00250000
1780, 0.00666667, 0.03500000, 0.00250000
1781, 0.00833333, 0.03500000, 0.00250000
1782, 0.01000000, 0.03500000, 0.00250000
1783, 0.01166667, 0.03500000, 0.00250000
1784, 0.01333333, 0.03500000, 0.00250000
1785, 0.01500000, 0.03500000, 0.00250000
1786, 0.01666667, 0.03500000, 0.00250000
1787, 0.01833333, 0.03500000, 0.00250000
1788, 0.02000000, 0.03500000, 0.00250000
1789, 0.02166667, 0.03500000, 0.00250000
1790, 0.02333333, 0.03500000, 0.00250000
1791, 0.02500000, 0.03500000, 0.00250000
1792, 0.02666667, 0.03500000, 0.00250000
1793, 0.02833333, 0.03500000, 0.00250000
1794, 0.03000000, 0.03500000, 0.00250000
1795, 0.03166667, 0.03500000, 0.00250000
1796, 0.03333333, 0.03500000, 0.00250000
1797, 0.03500000, 0.03500000, 0.00250000
1798, 0.03666667, 0.03500000, 0.00250000
1799, 0.03833333, 0.03500000, 0.00250000
1800, 0.04000000, 0.03500000, 0.00250000
1801, 0.00000000, 0.03666667, 0.00250000
1802, 0.00166667, 0.03666667, 0.00250000
1803, 0.00333333, 0.03666667, 0.00250000
1804, 0.00500000, 0.03666667, 0.00250000
1805, 0.00666667, 0.03666667, 0.00250000
1806, 0.00833333, 0.03666667, 0.00250000
1807, 0.01000000, 0.03666667, 0.00250000
1808, 0.01166667, 0.03666667, 0.00250000
1809, 0.01333333, 0.03666667, 0.00250000
1810, 0.01500000, 0.03666667, 0.00250000
1811, 0.01666667, 0.03666667, 0.00250000
1812, 0.01833333, 0.03666667, 0.00250000
1813, 0.02000000, 0.03666667, 0.00250000
1814, 0.02166667, 0.03666667, 0.00250000
1815, 0.02333333, 0.03666667, 0.00250000
1816, 0.02500000, 0.03666667, 0.00250000
1817, 0.02666667, 0.03666667, 0.00250000
1818, 0.02833333, 0.03666667, 0.00250000
1819, 0.03000000, 0.03666667, 0.00250000
1820, 0.03166667, 0.03666667, 0.00250000
1821, 0.03333333, 0.03666667, 0.00250000
1822, 0.03500000, 0.03666667, 0.00250000
1823, 0.03666667, 0.03666667, 0.00250000
1824, 0.03833333, 0.03666667, 0.00250000
1825, 0.04000000, 0.03666667, 0.00250000
1826, 0.00000000, 0.03833333, 0.00250000
1827, 0.00166667, 0.03833333, 0.00250000
1828, 0.00333333, 0.03833333, 0.00250000
1829, 0.00500000, 0.03833333, 0.00250000
1830, 0.00666667, 0.03833333, 0.00250000
1831, 0.00833333, 0.03833333, 0.00250000
1832, 0.01000000, 0.03833333, 0.00250000
1833, 0.01166667, 0.03833333, 0.00250000
1834, 0.01333333, 0.03833333, 0.00250000
1835, 0.01500000, 0.03833333, 0.00250000
1836, 0.01666667, 0.03833333, 0.00250000
1837, 0.01833333, 0.03833333, 0.00250000
1838, 0.02000000, 0.03833333, 0.00250000
1839, 0.02166667, 0.03833333, 0.00250000
1840, 0.02333333, 0.03833333, 0.00250000
1841, 0.02500000, 0.03833333, 0.00250000
1842, 0.02666667, 0.03833333, 0.00250000
1843, 0.02833333, 0.03833333, 0.00250000
1844, 0.03000000, 0.03833333, 0.00250000
1845, 0.03166667, 0.03833333, 0.00250000
1846, 0.03333333, 0.03833333, 0.00250000
1847, 0.03500000, 0.03833333, 0.00250000
1848, 0.03666667, 0.03833333, 0.00250000
1849, 0.03833333, 0.03833333, 0.00250000
1850, 0.04000000, 0.03833333, 0.00250000
1851, 0.00000000, 0.04000000, 0.00250000
1852, 0.00166667, 0.04000000, 0.00250000
1853, 0.00333333, 0.04000000, 0.00250000
1854, 0.00500000, 0.04000000, 0.00250000
1855, 0.00666667, 0.04000000, 0.00250000
1856, 0.00833333, 0.04000000, 0.00250000
1857, 0.01000000, 0.04000000, 0.00250000
1858, 0.01166667, 0.04000000, 0.00250000
1859, 0.01333333, 0.04000000, 0.00250000
1860, 0.01500000, 0.04000000, 0.00250000
1861, 0.01666667, 0.04000000, 0.00250000
1862, 0.01833333, 0.04000000, 0.00250000
1863, 0.02000000, 0.04000000, 0.00250000
1864, 0.02166667, 0.04000000, 0.00250000
1865, 0.02333333, 0.04000000, 0.00250000
1866, 0.02500000, 0.04000000, 0.00250000
1867, 0.02666667, 0.04000000, 0.00250000
1868, 0.02833333, 0.04000000, 0.00250000
1869, 0.03000000, 0.04000000, 0.00250000
1870, 0.03166667, 0.04000000, 0.00250000
1871, 0.03333333, 0.04000000, 0.00250000
1872, 0.03500000, 0.04000000, 0.00250000
1873, 0.03666667, 0.04000000, 0.00250000
1874, 0.03833333, 0.04000000, 0.00250000
1875, 0.04000000, 0.04000000, 0.00250000
1876, 0.00000000, 0.00000000, 0.00375000
1877, 0.00166667, 0.00000000, 0.00375000
1878, 0.00333333, 0.00000000, 0.00375000
1879, 0.00500000, 0.00000000, 0.00375000
1880, 0.00666667, 0.00000000, 0.00375000
1881, 0.00833333, 0.00000000, 0.00375000
1882, 0.01000000, 0.00000000, 0.00375000
1883, 0.01166667, 0.00000000, 0.00375000
1884, 0.01333333, 0.00000000, 0.00375000
1885, 0.01500000, 0.00000000, 0.00375000
1886, 0.01666667, 0.00000000, 0.00375000
1887, 0.01833333, 0.00000000, 0.00375000
1888, 0.02000000, 0.00000000, 0.00375000
1889, 0.02166667, 0.00000000, 0.00375000
1890, 0.02333333, 0.00000000, 0.00375000
1891, 0.02500000, 0.00000000, 0.00375000
1892, 0.02666667, 0.00000000, 0.00375000
1893, 0.02833333, 0.00000000, 0.00375000
1894, 0.03000000, 0.00000000, 0.00375000
1895, 0.03166667, 0.00000000, 0.00375000
1896, 0.03333333, 0.00000000, 0.00375000
1897, 0.03500000, 0.00000000, 0.00375000
1898, 0.03666667, 0.00000000, 0.00375000
1899, 0.03833333, 0.00000000, 0.00375000
1900, 0.04000000, 0.00000000, 0.00375000
1901, 0.00000000, 0.00166667, 0.00375000
1902, 0.00166667, 0.00166667, 0.00375000
1903, 0.00333333, 0.00166667, 0.00375000
1904, 0.00500000, 0.00166667, 0.00375000
1905, 0.00666667, 0.00166667, 0.00375000
1906, 0.00833333, 0.00166667, 0.00375000
1907, 0.01000000, 0.00166667, 0.00375000
1908, 0.01166667, 0.00166667, 0.00375000
1909, 0.01333333, 0.00166667, 0.00375000
1910, 0.01500000, 0.00166667, 0.00375000
1911, 0.01666667, 0.00166667, 0.00375000
1912, 0.01833333, 0.00166667, 0.00375000
1913, 0.02000000, 0.00166667, 0.00375000
1914, 0.02166667, 0.00166667, 0.00375000
1915, 0.02333333, 0.00166667, 0.00375000
1916, 0.02500000, 0.00166667, 0.00375000
1917, 0.02666667, 0.00166667, 0.00375000
1918, 0.02833333, 0.00166667, 0.00375000
1919, 0.03000000, 0.00166667, 0.00375000
1920, 0.03166667, 0.00166667, 0.00375000
1921, 0.03333333, 0.00166667, 0.00375000
1922, 0.03500000, 0.00166667, 0.00375000
1923, 0.03666667, 0.00166667, 0.00375000
1924, 0.03833333, 0.00166667, 0.00375000
1925, 0.04000000, 0.00166667, 0.00375000
1926, 0.00000000, 0.00333333, 0.00375000
1927, 0.00166667, 0.00333333, 0.00375000
1928, 0.00333333, 0.00333333, 0.00375000
1929, 0.00500000, 0.00333333, 0.00375000
1930, 0.00666667, 0.00333333, 0.00375000
1931, 0.00833333, 0.00333333, 0.00375000
1932, 0.01000000, 0.00333333, 0.00375000
1933, 0.01166667, 0.00333333, 0.00375000
1934, 0.01333333, 0.00333333, 0.00375000
1935, 0.01500000, 0.00333333, 0.00375000
1936, 0.01666667, 0.00333333, 0.00375000
1937, 0.01833333, 0.00333333, 0.00375000
1938, 0.02000000, 0.00333333, 0.00375000
1939, 0.02166667, 0.00333333, 0.00375000
1940, 0.02333333, 0.00333333, 0.00375000
1941, 0.02500000, 0.00333333, 0.00375000
1942, 0.02666667, 0.00333333, 0.00375000
1943, 0.02833333, 0.00333333, 0.00375000
1944, 0.03000000, 0.00333333, 0.00375000
1945, 0.03166667, 0.00333333, 0.00375000
1946, 0.03333333, 0.00333333, 0.00375000
1947, 0.03500000, 0.00333333, 0.00375000
1948, 0.03666667, 0.00333333, 0.00375000
1949, 0.03833333, 0.00333333, 0.00375000
1950, 0.04000000, 0.00333333, 0.00375000
1951, 0.00000000, 0.00500000, 0.00375000
1952, 0.00166667, 0.00500000, 0.00375000
1953, 0.00333333, 0.00500000, 0.00375000
1954, 0.00500000, 0.00500000, 0.00375000
1955, 0.00666667, 0.00500000, 0.00375000
1956, 0.00833333, 0.00500000, 0.00375000
1957, 0.01000000, 0.00500000, 0.00375000
1958, 0.01166667, 0.00500000, 0.00375000
1959, 0.01333333, 0.00500000, 0.00375000
1960, 0.01500000, 0.00500000, 0.00375000
1961, 0.01666667, 0.00500000, 0.00375000
1962, 0.01833333, 0.00500000, 0.00375000
1963, 0.02000000, 0.00500000, 0.00375000
1964, 0.02166667, 0.00500000, 0.00375000
1965, 0.02333333, 0.00500000, 0.00375000
1966, 0.02500000, 0.00500000, 0.00375000
1967, 0.02666667, 0.00500000, 0.00375000
1968, 0.02833333, 0.00500000, 0.00375000
1969, 0.03000000, 0.00500000, 0.00375000
1970, 0.03166667, 0.00500000, 0.00375000
1971, 0.03333333, 0.00500000, 0.00375000
1972, 0.03500000, 0.00500000, 0.00375000
1973, 0.03666667, 0.00500000, 0.00375000
1974, 0.03833333, 0.00500000, 0.00375000
1975, 0.04000000, 0.00500000, 0.00375000
1976, 0.00000000, 0.00666667, 0.00375000
1977, 0.00166667, 0.00666667, 0.00375000
1978, 0.00333333, 0.00666667, 0.00375000
1979, 0.00500000, 0.00666667, 0.00375000
1980, 0.00666667, 0.00666667, 0.00375000
1981, 0.00833333, 0.00666667, 0.00375000
1982, 0.01000000, 0.00666667, 0.00375000
1983, 0.01166667, 0.00666667, 0.00375000
1984, 0.01333333, 0.00666667, 0.00375000
1985, 0.01500000, 0.00666667, 0.00375000
1986, 0.01666667, 0.00666667, 0.00375000
1987, 0.01833333, 0.00666667, 0.00375000
1988, 0.02000000, 0.00666667, 0.00375000
1989, 0.02166667, 0.00666667, 0.00375000
1990, 0.02333333, 0.00666667, 0.00375000
1991, 0.02500000, 0.00666667, 0.00375000
1992, 0.02666667, 0.00666667, 0.00375000
1993, 0.02833333, 0.00666667, 0.00375000
1994, 0.03000000, 0.00666667, 0.00375000
1995, 0.03166667, 0.00666667, 0.00375000
1996, 0.03333333, 0.00666667, 0.00375000
1997, 0.03500000, 0.00666667, 0.00375000
1998, 0.03666667, 0.00666667, 0.00375000
1999, 0.03833333, 0.00666667, 0.00375000
2000, 0.04000000, 0.00666667, 0.00375000
2001, 0.00000000, 0.00833333, 0.00375000
2002, 0.00166667, 0.00833333, 0.00375000
2003, 0.00333333, 0.00833333, 0.00375000
2004, 0.00500000, 0.00833333, 0.00375000
2005, 0.00666667, 0.00833333, 0.00375000
2006, 0.00833333, 0.00833333, 0.00375000
2007, 0.01000000, 0.00833333, 0.00375000
2008, 0.01166667, 0.00833333, 0.00375000
2009, 0.01333333, 0.00833333, 0.00375000
2010, 0.01500000, 0.00833333, 0.00375000
2011, 0.01666667, 0.00833333, 0.00375000
2012, 0.01833333, 0.00833333, 0.00375000
2013, 0.02000000, 0.00833333, 0.00375000
2014, 0.02166667, 0.00833333, 0.00375000
2015, 0.02333333, 0.00833333, 0.00375000
2016, 0.02500000, 0.00833333, 0.00375000
2017, 0.02666667, 0.00833333, 0.00375000
2018, 0.02833333, 0.00833333, 0.00375000
2019, 0.03000000, 0.00833333, 0.00375000
2020, 0.03166667, 0.00833333, 0.00375000
2021, 0.03333333, 0.00833333, 0.00375000
2022, 0.03500000, 0.00833333, 0.00375000
2023, 0.03666667, 0.00833333, 0.00375000
2024, 0.03833333, 0.00833333, 0.00375000
2025, 0.04000000, 0.00833333, 0.00375000
2026, 0.00000000, 0.01000000, 0.00375000
2027, 0.00166667, 0.01000000, 0.00375000
2028, 0.00333333, 0.01000000, 0.00375000
2029, 0.00500000, 0.01000000, 0.00375000
2030, 0.00666667, 0.01000000, 0.00375000
2031, 0.00833333, 0.01000000, 0.00375000
2032, 0.01000000, 0.01000000, 0.00375000
2033, 0.01166667, 0.01000000, 0.00375000
2034, 0.01333333, 0.01000000, 0.00375000
2035, 0.01500000, 0.01000000, 0.00375000
2036, 0.01666667, 0.01000000, 0.00375000
2037, 0.01833333, 0.01000000, 0.00375000
2038, 0.02000000, 0.01000000, 0.00375000
2039, 0.02166667, 0.01000000, 0.00375000
2040, 0.02333333, 0.01000000, 0.00375000
2041, 0.02500000, 0.01000000, 0.00375000
2042, 0.02666667, 0.01000000, 0.00375000
2043, 0.02833333, 0.01000000, 0.00375000
2044, 0.03000000, 0.01000000, 0.00375000
2045, 0.03166667, 0.01000000, 0.00375000
2046, 0.03333333, 0.01000000, 0.00375000
2047, 0.03500000, 0.01000000, 0.00375000
2048, 0.03666667, 0.01000000, 0.00375000
2049, 0.03833333, 0.01000000, 0.00375000
2050, 0.04000000, 0.01000000, 0.00375000
2051, 0.00000000, 0.01166667, 0.00375000
2052, 0.00166667, 0.01166667, 0.00375000
2053, 0.00333333, 0.01166667, 0.00375000
2054, 0.00500000, 0.01166667, 0.00375000
2055, 0.00666667, 0.01166667, 0.00375000
2056, 0.00833333, 0.01166667, 0.00375000
2057, 0.01000000, 0.01166667, 0.00375000
2058, 0.01166667, 0.01166667, 0.00375000
2059, 0.01333333, 0.01166667, 0.00375000
2060, 0.01500000, 0.01166667, 0.00375000
2061, 0.01666667, 0.01166667, 0.00375000
2062, 0.01833333, 0.01166667, 0.00375000
2063, 0.02000000, 0.01166667, 0.00375000
2064, 0.02166667, 0.01166667, 0.00375000
2065, 0.02333333, 0.01166667, 0.00375000
2066, 0.02500000, 0.01166667, 0.00375000
2067, 0.02666667, 0.01166667, 0.00375000
2068, 0.02833333, 0.01166667, 0.00375000
2069, 0.03000000, 0.01166667, 0.00375000
2070, 0.03166667, 0.01166667, 0.00375000
2071, 0.03333333, 0.01166667, 0.00375000
2072, 0.03500000, 0.01166667, 0.00375000
2073, 0.03666667, 0.01166667, 0.00375000
2074, 0.03833333, 0.01166667, 0.00375000
2075, 0.04000000, 0.01166667, 0.00375000
2076, 0.00000000, 0.01333333, 0.00375000
2077, 0.00166667, 0.01333333, 0.00375000
2078, 0.00333333, 0.01333333, 0.00375000
2079, 0.00500000, 0.01333333, 0.00375000
2080, 0.00666667, 0.01333333, 0.00375000
2081, 0.00833333, 0.01333333, 0.00375000
2082, 0.01000000, 0.01333333, 0.00375000
2083, 0.01166667, 0.01333333, 0.00375000
2084, 0.01333333, 0.01333333, 0.00375000
2085, 0.01500000, 0.01333333, 0.00375000
2086, 0.01666667, 0.01333333, 0.00375000
2087, 0.01833333, 0.01333333, 0.00375000
2088, 0.02000000, 0.01333333, 0.00375000
2089, 0.02166667, 0.01333333, 0.00375000
2090, 0.02333333, 0.01333333, 0.00375000
2091, 0.02500000, 0.01333333, 0.00375000
2092, 0.02666667, 0.01333333, 0.00375000
2093, 0.02833333, 0.01333333, 0.00375000
2094, 0.03000000, 0.01333333, 0.00375000
2095, 0.03166667, 0.01333333, 0.00375000
2096, 0.03333333, 0.01333333, 0.00375000
2097, 0.03500000, 0.01333333, 0.00375000
2098, 0.03666667, 0.01333333, 0.00375000
2099, 0.03833333, 0.01333333, 0.00375000
2100, 0.04000000, 0.01333333, 0.00375000
2101, 0.00000000, 0.01500000, 0.00375000
2102, 0.00166667, 0.01500000, 0.00375000
2103, 0.00333333, 0.01500000, 0.00375000
2104, 0.00500000, 0.01500000, 0.00375000
2105, 0.00666667, 0.01500000, 0.00375000
2106, 0.00833333, 0.01500000, 0.00375000
2107, 0.01000000, 0.01500000, 0.00375000
2108, 0.01166667, 0.01500000, 0.00375000
2109, 0.01333333, 0.01500000, 0.00375000
2110, 0.01500000, 0.01500000, 0.00375000
2111, 0.01666667, 0.01500000, 0.00375000
2112, 0.01833333, 0.01500000, 0.00375000
2113, 0.02000000, 0.01500000, 0.00375000
2114, 0.02166667, 0.01500000, 0.00375000
2115, 0.02333333, 0.01500000, 0.00375000
2116, 0.02500000, 0.01500000, 0.00375000
2117, 0.02666667, 0.01500000, 0.00375000
2118, 0.02833333, 0.01500000, 0.00375000
2119, 0.03000000, 0.01500000, 0.00375000
2120, 0.03166667, 0.01500000, 0.00375000
2121, 0.03333333, 0.01500000, 0.00375000
2122, 0.03500000, 0.01500000, 0.00375000
2123, 0.03666667, 0.01500000, 0.00375000
2124, 0.03833333, 0.01500000, 0.00375000
2125, 0.04000000, 0.01500000, 0.00375000
2126, 0.00000000, 0.01666667, 0.00375000
2127, 0.00166667, 0.01666667, 0.00375000
2128, 0.00333333, 0.01666667, 0.00375000
2129, 0.00500000, 0.01666667, 0.00375000
2130, 0.00666667, 0.01666667, 0.00375000
2131, 0.00833333, 0.01666667, 0.00375000
2132, 0.01000000, 0.01666667, 0.00375000
2133, 0.01166667, 0.01666667, 0.00375000
2134, 0.01333333, 0.01666667, 0.00375000
2135, 0.01500000, 0.01666667, 0.00375000
2136, 0.01666667, 0.01666667, 0.00375000
2137, 0.01833333, 0.01666667, 0.00375000
2138, 0.02000000, 0.01666667, 0.00375000
2139, 0.02166667, 0.01666667, 0.00375000
2140, 0.02333333, 0.01666667, 0.00375000
2141, 0.02500000, 0.01666667, 0.00375000
2142, 0.02666667, 0.01666667, 0.00375000
2143, 0.02833333, 0.01666667, 0.00375000
2144, 0.03000000, 0.01666667, 0.00375000
2145, 0.03166667, 0.01666667, 0.00375000
2146, 0.03333333, 0.01666667, 0.00375000
2147, 0.03500000, 0.01666667, 0.00375000
2148, 0.03666667, 0.01666667, 0.00375000
2149, 0.03833333, 0.01666667, 0.00375000
2150, 0.04000000, 0.01666667, 0.00375000
2151, 0.00000000, 0.01833333, 0.00375000
2152, 0.00166667, 0.01833333, 0.00375000
2153, 0.00333333, 0.01833333, 0.00375000
2154, 0.00500000, 0.01833333, 0.00375000
2155, 0.00666667, 0.01833333, 0.00375000
2156, 0.00833333, 0.01833333, 0.00375000
2157, 0.01000000, 0.01833333, 0.00375000
2158, 0.01166667, 0.01833333, 0.00375000
2159, 0.01333333, 0.01833333, 0.00375000
2160, 0.01500000, 0.01833333, 0.00375000
2161, 0.01666667, 0.01833333, 0.00375000
2162, 0.01833333, 0.01833333, 0.00375000
2163, 0.02000000, 0.01833333, 0.00375000
2164, 0.02166667, 0.01833333, 0.00375000
2165, 0.02333333, 0.01833333, 0.00375000
2166, 0.02500000, 0.01833333, 0.00375000
2167, 0.02666667, 0.01833333, 0.00375000
2168, 0.02833333, 0.01833333, 0.00375000
2169, 0.03000000, 0.01833333, 0.00375000
2170, 0.03166667, 0.01833333, 0.00375000
2171, 0.03333333, 0.01833333, 0.00375000
2172, 0.03500000, 0.01833333, 0.00375000
2173, 0.03666667, 0.01833333, 0.00375000
2174, 0.03833333, 0.01833333, 0.00375000
2175, 0.04000000, 0.01833333, 0.00375000
2176, 0.00000000, 0.02000000, 0.00375000
2177, 0.00166667, 0.02000000, 0.00375000
2178, 0.00333333, 0.02000000, 0.00375000
2179, 0.00500000, 0.02000000, 0.00375000
2180, 0.00666667, 0.02000000, 0.00375000
2181, 0.00833333, 0.02000000, 0.00375000
2182, 0.01000000, 0.02000000, 0.00375000
2183, 0.01166667, 0.02000000, 0.00375000
2184, 0.01333333, 0.02000000, 0.00375000
2185, 0.01500000, 0.02000000, 0.00375000
2186, 0.01666667, 0.02000000, 0.00375000
2187, 0.01833333, 0.02000000, 0.00375000
2188, 0.02000000, 0.02000000, 0.00375000
2189, 0.02166667, 0.02000000, 0.00375000
2190, 0.02333333, 0.02000000, 0.00375000
2191, 0.02500000, 0.02000000, 0.00375000
2192, 0.02666667, 0.02000000, 0.00375000
2193, 0.02833333, 0.02000000, 0.00375000
2194, 0.03000000, 0.02000000, 0.00375000
2195, 0.03166667, 0.02000000, 0.00375000
2196, 0.03333333, 0.02000000, 0.00375000
2197, 0.03500000, 0.02000000, 0.00375000
2198, 0.03666667, 0.02000000, 0.00375000
2199, 0.03833333, 0.02000000, 0.00375000
2200, 0.04000000, 0.02000000, 0.00375000
2201, 0.00000000, 0.02166667, 0.00375000
2202, 0.00166667, 0.02166667, 0.00375000
2203, 0.00333333, 0.02166667, 0.00375000
2204, 0.00500000, 0.02166667, 0.00375000
2205, 0.00666667, 0.02166667, 0.00375000
2206, 0.00833333, 0.02166667, 0.00375000
2207, 0.01000000, 0.02166667, 0.00375000
2208, 0.01166667, 0.02166667, 0.00375000
2209, 0.01333333, 0.02166667, 0.00375000
2210, 0.01500000, 0.02166667, 0.00375000
2211, 0.01666667, 0.02166667, 0.00375000
2212, 0.01833333, 0.02166667, 0.00375000
2213, 0.02000000, 0.02166667, 0.00375000
2214, 0.02166667, 0.02166667, 0.00375000
2215, 0.02333333, 0.02166667, 0.00375000
2216, 0.02500000, 0.02166667, 0.00375000
2217, 0.02666667, 0.02166667, 0.00375000
2218, 0.02833333, 0.02166667, 0.00375000
2219, 0.03000000, 0.02166667, 0.00375000
2220, 0.03166667, 0.02166667, 0.00375000
2221, 0.03333333, 0.02166667, 0.00375000
2222, 0.03500000, 0.02166667, 0.00375000
2223, 0.03666667, 0.02166667, 0.00375000
2224, 0.03833333, 0.02166667, 0.00375000
2225, 0.04000000, 0.02166667, 0.00375000
2226, 0.00000000, 0.02333333, 0.00375000
2227, 0.00166667, 0.02333333, 0.00375000
2228, 0.00333333, 0.02333333, 0.00375000
2229, 0.00500000, 0.02333333, 0.00375000
2230, 0.00666667, 0.02333333, 0.00375000
2231, 0.00833333, 0.02333333, 0.00375000
2232, 0.01000000, 0.02333333, 0.00375000
2233, 0.01166667, 0.02333333, 0.00375000
2234, 0.01333333, 0.02333333, 0.00375000
2235, 0.01500000, 0.02333333, 0.00375000
2236, 0.01666667, 0.02333333, 0.00375000
2237, 0.01833333, 0.02333333, 0.00375000
2238, 0.02000000, 0.02333333, 0.00375000
2239, 0.02166667, 0.02333333, 0.00375000
2240, 0.02333333, 0.02333333, 0.00375000
2241, 0.02500000, 0.02333333, 0.00375000
2242, 0.02666667, 0.02333333, 0.00375000
2243, 0.02833333, 0.02333333, 0.00375000
2244, 0.03000000, 0.02333333, 0.00375000
2245, 0.03166667, 0.02333333, 0.00375000
2246, 0.03333333, 0.02333333, 0.00375000
2247, 0.03500000, 0.02333333, 0.00375000
2248, 0.03666667, 0.02333333, 0.00375000
2249, 0.03833333, 0.02333333, 0.00375000
2250, 0.04000000, 0.02333333, 0.00375000
2251, 0.00000000, 0.02500000, 0.00375000
2252, 0.00166667, 0.02500000, 0.00375000
2253, 0.00333333, 0.02500000, 0.00375000
2254, 0.00500000, 0.02500000, 0.00375000
2255, 0.00666667, 0.02500000, 0.00375000
2256, 0.00833333, 0.02500000, 0.00375000
2257, 0.01000000, 0.02500000, 0.00375000
2258, 0.01166667, 0.02500000, 0.00375000
2259, 0.01333333, 0.02500000, 0.00375000
2260, 0.01500000, 0.02500000, 0.00375000
2261, 0.01666667, 0.02500000, 0.00375000
2262, 0.01833333, 0.02500000, 0.00375000
2263, 0.02000000, 0.02500000, 0.00375000
2264, 0.02166667, 0.02500000, 0.00375000
2265, 0.02333333, 0.02500000, 0.00375000
2266, 0.02500000, 0.02500000, 0.00375000
2267, 0.02666667, 0.02500000, 0.00375000
2268, 0.02833333, 0.02500000, 0.00375000
2269, 0.03000000, 0.02500000, 0.00375000
2270, 0.03166667, 0.02500000, 0.00375000
2271, 0.03333333, 0.02500000, 0.00375000
2272, 0.03500000, 0.02500000, 0.00375000
2273, 0.03666667, 0.02500000, 0.00375000
2274, 0.03833333, 0.02500000, 0.00375000
2275, 0.04000000, 0.02500000, 0.00375000
2276, 0.00000000, 0.02666667, 0.00375000
2277, 0.00166667, 0.02666667, 0.00375000
2278, 0.00333333, 0.02666667, 0.00375000
2279, 0.00500000, 0.02666667, 0.00375000
2280, 0.00666667, 0.02666667, 0.00375000
2281, 0.00833333, 0.02666667, 0.00375000
2282, 0.01000000, 0.02666667, 0.00375000
2283, 0.01166667, 0.02666667, 0.00375000
2284, 0.01333333, 0.02666667, 0.00375000
2285, 0.01500000, 0.02666667, 0.00375000
2286, 0.01666667, 0.02666667, 0.00375000
2287, 0.01833333, 0.02666667, 0.00375000
2288, 0.02000000, 0.02666667, 0.00375000
2289, 0.02166667, 0.02666667, 0.00375000
2290, 0.02333333, 0.02666667, 0.00375000
2291, 0.02500000, 0.02666667, 0.00375000
2292, 0.02666667, 0.02666667, 0.00375000
2293, 0.02833333, 0.02666667, 0.00375000
2294, 0.03000000, 0.02666667, 0.00375000
2295, 0.03166667, 0.02666667, 0.00375000
2296, 0.03333333, 0.02666667, 0.00375000
2297, 0.03500000, 0.02666667, 0.00375000
2298, 0.03666667, 0.02666667, 0.00375000
2299, 0.03833333, 0.02666667, 0.00375000
2300, 0.04000000, 0.02666667, 0.00375000
2301, 0.00000000, 0.02833333, 0.00375000
2302, 0.00166667, 0.02833333, 0.00375000
2303, 0.00333333, 0.02833333, 0.00375000
2304, 0.00500000, 0.02833333, 0.00375000
2305, 0.00666667, 0.02833333, 0.00375000
2306, 0.00833333, 0.02833333, 0.00375000
2307, 0.01000000, 0.02833333, 0.00375000
2308, 0.01166667, 0.02833333, 0.00375000
2309, 0.01333333, 0.02833333, 0.00375000
2310, 0.01500000, 0.02833333, 0.00375000
2311, 0.01666667, 0.02833333, 0.00375000
2312, 0.01833333, 0.02833333, 0.00375000
2313, 0.02000000, 0.02833333, 0.00375000
2314, 0.02166667, 0.02833333, 0.00375000
2315, 0.02333333, 0.02833333, 0.00375000
2316, 0.02500000, 0.02833333, 0.00375000
2317, 0.02666667, 0.02833333, 0.00375000
2318, 0.02833333, 0.02833333, 0.00375000
2319, 0.03000000, 0.02833333, 0.00375000
2320, 0.03166667, 0.02833333, 0.00375000
2321, 0.03333333, 0.02833333, 0.00375000
2322, 0.03500000, 0.02833333, 0.00375000
2323, 0.03666667, 0.02833333, 0.00375000
2324, 0.03833333, 0.02833333, 0.00375000
2325, 0.04000000, 0.02833333, 0.00375000
2326, 0.00000000, 0.03000000, 0.00375000
2327, 0.00166667, 0.03000000, 0.00375000
2328, 0.00333333, 0.03000000, 0.00375000
2329, 0.00500000, 0.03000000, 0.00375000
2330, 0.00666667, 0.03000000, 0.00375000
2331, 0.00833333, 0.03000000, 0.00375000
2332, 0.01000000, 0.03000000, 0.00375000
2333, 0.01166667, 0.03000000, 0.00375000
2334, 0.01333333, 0.03000000, 0.00375000
2335, 0.01500000, 0.03000000, 0.00375000
2336, 0.01666667, 0.03000000, 0.00375000
2337, 0.01833333, 0.03000000, 0.00375000
2338, 0.02000000, 0.03000000, 0.00375000
2339, 0.02166667, 0.03000000, 0.00375000
2340, 0.02333333, 0.03000000, 0.00375000
2341, 0.02500000, 0.03000000, 0.00375000
2342, 0.02666667, 0.03000000, 0.00375000
2343, 0.02833333, 0.03000000, 0.00375000
2344, 0.03000000, 0.03000000, 0.00375000
2345, 0.03166667, 0.03000000, 0.00375000
2346, 0.03333333, 0.03000000, 0.00375000
2347, 0.03500000, 0.03000000, 0.00375000
2348, 0.03666667, 0.03000000, 0.00375000
2349, 0.03833333, 0.03000000, 0.00375000
2350, 0.04000000, 0.03000000, 0.00375000
2351, 0.00000000, 0.03166667, 0.00375000
2352, 0.00166667, 0.03166667, 0.00375000
2353, 0.00333333, 0.03166667, 0.00375000
2354, 0.00500000, 0.03166667, 0.00375000
2355, 0.00666667, 0.03166667, 0.00375000
2356, 0.00833333, 0.03166667, 0.00375000
2357, 0.01000000, 0.03166667, 0.00375000
2358, 0.01166667, 0.03166667, 0.00375000
2359, 0.01333333, 0.03166667, 0.00375000
2360, 0.01500000, 0.03166667, 0.00375000
2361, 0.01666667, 0.03166667, 0.00375000
2362, 0.01833333, 0.03166667, 0.00375000
2363, 0.02000000, 0.03166667, 0.00375000
2364, 0.02166667, 0.03166667, 0.00375000
2365, 0.02333333, 0.03166667, 0.00375000
2366, 0.02500000, 0.03166667, 0.00375000
2367, 0.02666667, 0.03166667, 0.00375000
2368, 0.02833333, 0.03166667, 0.00375000
2369, 0.03000000, 0.03166667, 0.00375000
2370, 0.03166667, 0.03166667, 0.00375000
2371, 0.03333333, 0.03166667, 0.00375000
2372, 0.03500000, 0.03166667, 0.00375000
2373, 0.03666667, 0.03166667, 0.00375000
2374, 0.03833333, 0.03166667, 0.00375000
2375, 0.04000000, 0.03166667, 0.00375000
2376, 0.00000000, 0.03333333, 0.00375000
2377, 0.00166667, 0.03333333, 0.00375000
2378, 0.00333333, 0.03333333, 0.00375000
2379, 0.00500000, 0.03333333, 0.00375000
2380, 0.00666667, 0.03333333, 0.00375000
2381, 0.00833333, 0.03333333, 0.00375000
2382, 0.01000000, 0.03333333, 0.00375000
2383, 0.01166667, 0.03333333, 0.00375000
2384, 0.01333333, 0.03333333, 0.00375000
2385, 0.01500000, 0.03333333, 0.00375000
2386, 0.01666667, 0.03333333, 0.00375000
2387, 0.01833333, 0.03333333, 0.00375000
2388, 0.02000000, 0.03333333, 0.00375000
2389, 0.02166667, 0.03333333, 0.00375000
2390, 0.02333333, 0.03333333, 0.00375000
2391, 0.02500000, 0.03333333, 0.00375000
2392, 0.02666667, 0.03333333, 0.00375000
2393, 0.02833333, 0.03333333, 0.00375000
2394, 0.03000000, 0.03333333, 0.00375000
2395, 0.03166667, 0.03333333, 0.00375000
2396, 0.03333333, 0.03333333, 0.00375000
2397, 0.03500000, 0.03333333, 0.00375000
2398, 0.03666667, 0.03333333, 0.00375000
2399, 0.03833333, 0.03333333, 0.00375000
2400, 0.04000000, 0.03333333, 0.00375000
2401, 0.00000000, 0.03500000, 0.00375000
2402, 0.00166667, 0.03500000, 0.00375000
2403, 0.00333333, 0.03500000, 0.00375000
2404, 0.00500000, 0.03500000, 0.00375000
2405, 0.00666667, 0.03500000, 0.00375000
2406, 0.00833333, 0.03500000, 0.00375000
2407, 0.01000000, 0.03500000, 0.00375000
2408, 0.01166667, 0.03500000, 0.00375000
2409, 0.01333333, 0.03500000, 0.00375000
2410, 0.01500000, 0.03500000, 0.00375000
2411, 0.01666667, 0.03500000, 0.00375000
2412, 0.01833333, 0.03500000, 0.00375000
2413, 0.02000000, 0.03500000, 0.00375000
2414, 0.02166667, 0.03500000, 0.00375000
2415, 0.02333333, 0.03500000, 0.00375000
2416, 0.02500000, 0.03500000, 0.00375000
2417, 0.02666667, 0.03500000, 0.00375000
2418, 0.02833333, 0.03500000, 0.00375000
2419, 0.03000000, 0.03500000, 0.00375000
2420, 0.03166667, 0.03500000, 0.00375000
2421, 0.03333333, 0.03500000, 0.00375000
2422, 0.03500000, 0.03500000, 0.00375000
2423, 0.03666667, 0.03500000, 0.00375000
2424, 0.03833333, 0.03500000, 0.00375000
2425, 0.04000000, 0.03500000, 0.00375000
2426, 0.00000000, 0.03666667, 0.00375000
2427, 0.00166667, 0.03666667, 0.00375000
2428, 0.00333333, 0.03666667, 0.00375000
2429, 0.00500000, 0.03666667, 0.00375000
2430, 0.00666667, 0.03666667, 0.00375000
2431, 0.00833333, 0.03666667, 0.00375000
2432, 0.01000000, 0.03666667, 0.00375000
2433, 0.01166667, 0.03666667, 0.00375000
2434, 0.01333333, 0.03666667, 0.00375000
2435, 0.01500000, 0.03666667, 0.00375000
2436, 0.01666667, 0.03666667, 0.00375000
2437, 0.01833333, 0.03666667, 0.00375000
2438, 0.02000000, 0.03666667, 0.00375000
2439, 0.02166667, 0.03666667, 0.00375000
2440, 0.02333333, 0.03666667, 0.00375000
2441, 0.02500000, 0.03666667, 0.00375000
2442, 0.02666667, 0.03666667, 0.00375000
2443, 0.02833333, 0.03666667, 0.00375000
2444, 0.03000000, 0.03666667, 0.00375000
2445, 0.03166667, 0.03666667, 0.00375000
2446, 0.03333333, 0.03666667, 0.00375000
2447, 0.03500000, 0.03666667, 0.00375000
2448, 0.03666667, 0.03666667, 0.00375000
2449, 0.03833333, 0.03666667, 0.00375000
2450, 0.04000000, 0.03666667, 0.00375000
2451, 0.00000000, 0.03833333, 0.00375000
2452, 0.00166667, 0.03833333, 0.00375000
2453, 0.00333333, 0.03833333, 0.00375000
2454, 0.00500000, 0.03833333, 0.00375000
2455, 0.00666667, 0.03833333, 0.00375000
2456, 0.00833333, 0.03833333, 0.00375000
2457, 0.01000000, 0.03833333, 0.00375000
2458, 0.01166667, 0.03833333, 0.00375000
2459, 0.01333333, 0.03833333, 0.00375000
2460, 0.01500000, 0.03833333, 0.00375000
2461, 0.01666667, 0.03833333, 0.00375000
2462, 0.01833333, 0.03833333, 0.00375000
2463, 0.02000000, 0.03833333, 0.00375000
2464, 0.02166667, 0.03833333, 0.00375000
2465, 0.02333333, 0.03833333, 0.00375000
2466, 0.02500000, 0.03833333, 0.00375000
2467, 0.02666667, 0.03833333, 0.00375000
2468, 0.02833333, 0.03833333, 0.00375000
2469, 0.03000000, 0.03833333, 0.00375000
2470, 0.03166667, 0.03833333, 0.00375000
2471, 0.03333333, 0.03833333, 0.00375000
2472, 0.03500000, 0.03833333, 0.00375000
2473, 0.03666667, 0.03833333, 0.00375000
2474, 0.03833333, 0.03833333, 0.00375000
2475, 0.04000000, 0.03833333, 0.00375000
2476, 0.00000000, 0.04000000, 0.00375000
2477, 0.00166667, 0.04000000, 0.00375000
2478, 0.00333333, 0.04000000, 0.00375000
2479, 0.00500000, 0.04000000, 0.00375000
2480, 0.00666667, 0.04000000, 0.00375000
2481, 0.00833333, 0.04000000, 0.00375000
2482, 0.01000000, 0.04000000, 0.00375000
2483, 0.01166667, 0.04000000, 0.00375000
2484, 0.01333333, 0.04000000, 0.00375000
2485, 0.01500000, 0.04000000, 0.00375000
2486, 0.01666667, 0.04000000, 0.00375000
2487, 0.01833333, 0.04000000, 0.00375000
2488, 0.02000000, 0.04000000, 0.00375000
2489, 0.02166667, 0.04000000, 0.00375000
2490, 0.02333333, 0.04000000, 0.00375000
2491, 0.02500000, 0.04000000, 0.00375000
2492, 0.02666667, 0.04000000, 0.00375000
2493, 0.02833333, 0.04000000, 0.00375000
2494, 0.03000000, 0.04000000, 0.00375000
2495, 0.03166667, 0.04000000, 0.00375000
2496, 0.03333333, 0.04000000, 0.00375000
2497, 0.03500000, 0.04000000, 0.00375000
2498, 0.03666667, 0.04000000, 0.00375000
2499, 0.03833333, 0.04000000, 0.00375000
2500, 0.04000000, 0.04000000, 0.00375000
2501, 0.00000000, 0.00000000, 0.00500000
2502, 0.00166667, 0.00000000, 0.00500000
2503, 0.00333333, 0.00000000, 0.00500000
2504, 0.00500000, 0.00000000, 0.00500000
2505, 0.00666667, 0.00000000, 0.00500000
2506, 0.00833333, 0.00000000, 0.00500000
2507, 0.01000000, 0.00000000, 0.00500000
2508, 0.01166667, 0.00000000, 0.00500000
2509, 0.01333333, 0.00000000, 0.00500000
2510, 0.01500000, 0.00000000, 0.00500000
2511, 0.01666667, 0.00000000, 0.00500000
2512, 0.01833333, 0.00000000, 0.00500000
2513, 0.02000000, 0.00000000, 0.00500000
2514, 0.02166667, 0.00000000, 0.00500000
2515, 0.02333333, 0.00000000, 0.00500000
2516, 0.02500000, 0.00000000, 0.00500000
2517, 0.02666667, 0.00000000, 0.00500000
2518, 0.02833333, 0.00000000, 0.00500000
2519, 0.03000000, 0.00000000, 0.00500000
2520, 0.03166667, 0.00000000, 0.00500000
2521, 0.03333333, 0.00000000, 0.00500000
2522, 0.03500000, 0.00000000, 0.00500000
2523, 0.03666667, 0.00000000, 0.00500000
2524, 0.03833333, 0.00000000, 0.00500000
2525, 0.04000000, 0.00000000, 0.00500000
2526, 0.00000000, 0.00166667, 0.00500000
2527, 0.00166667, 0.00166667, 0.00500000
2528, 0.00333333, 0.00166667, 0.00500000
2529, 0.00500000, 0.00166667, 0.00500000
2530, 0.00666667, 0.00166667, 0.00500000
2531, 0.00833333, 0.00166667, 0.00500000
2532, 0.01000000, 0.00166667, 0.00500000
2533, 0.01166667, 0.00166667, 0.00500000
2534, 0.01333333, 0.00166667, 0.00500000
2535, 0.01500000, 0.00166667, 0.00500000
2536, 0.01666667, 0.00166667, 0.00500000
2537, 0.01833333, 0.00166667, 0.00500000
2538, 0.02000000, 0.00166667, 0.00500000
2539, 0.02166667, 0.00166667, 0.00500000
2540, 0.02333333, 0.00166667, 0.00500000
2541, 0.02500000, 0.00166667, 0.00500000
2542, 0.02666667, 0.00166667, 0.00500000
2543, 0.02833333, 0.00166667, 0.00500000
2544, 0.03000000, 0.00166667, 0.00500000
2545, 0.03166667, 0.00166667, 0.00500000
2546, 0.03333333, 0.00166667, 0.00500000
2547, 0.03500000, 0.00166667, 0.00500000
2548, 0.03666667, 0.00166667, 0.00500000
2549, 0.03833333, 0.00166667, 0.00500000
2550, 0.04000000, 0.00166667, 0.00500000
2551, 0.00000000, 0.00333333, 0.00500000
2552, 0.00166667, 0.00333333, 0.00500000
2553, 0.00333333, 0.00333333, 0.00500000
2554, 0.00500000, 0.00333333, 0.00500000
2555, 0.00666667, 0.00333333, 0.00500000
2556, 0.00833333, 0.00333333, 0.00500000
2557, 0.01000000, 0.00333333, 0.00500000
2558, 0.01166667, 0.00333333, 0.00500000
2559, 0.01333333, 0.00333333, 0.00500000
2560, 0.01500000, 0.00333333, 0.00500000
2561, 0.01666667, 0.00333333, 0.00500000
2562, 0.01833333, 0.00333333, 0.00500000
2563, 0.02000000, 0.00333333, 0.00500000
2564, 0.02166667, 0.00333333, 0.00500000
2565, 0.02333333, 0.00333333, 0.00500000
2566, 0.02500000, 0.00333333, 0.00500000
2567, 0.02666667, 0.00333333, 0.00500000
2568, 0.02833333, 0.00333333, 0.00500000
2569, 0.03000000, 0.00333333, 0.00500000
2570, 0.03166667, 0.00333333, 0.00500000
2571, 0.03333333, 0.00333333, 0.00500000
2572, 0.03500000, 0.00333333, 0.00500000
2573, 0.03666667, 0.00333333, 0.00500000
2574, 0.03833333, 0.00333333, 0.00500000
2575, 0.04000000, 0.00333333, 0.00500000
2576, 0.00000000, 0.00500000, 0.00500000
2577, 0.00166667, 0.00500000, 0.00500000
2578, 0.00333333, 0.00500000, 0.00500000
2579, 0.00500000, 0.00500000, 0.00500000
2580, 0.00666667, 0.00500000, 0.00500000
2581, 0.00833333, 0.00500000, 0.00500000
2582, 0.01000000, 0.00500000, 0.00500000
2583, 0.01166667, 0.00500000, 0.00500000
2584, 0.01333333, 0.00500000, 0.00500000
2585, 0.01500000, 0.00500000, 0.00500000
2586, 0.01666667, 0.00500000, 0.00500000
2587, 0.01833333, 0.00500000, 0.00500000
2588, 0.02000000, 0.00500000, 0.00500000
2589, 0.02166667, 0.00500000, 0.00500000
2590, 0.02333333, 0.00500000, 0.00500000
2591, 0.02500000, 0.00500000, 0.00500000
2592, 0.02666667, 0.00500000, 0.00500000
2593, 0.02833333, 0.00500000, 0.00500000
2594, 0.03000000, 0.00500000, 0.00500000
2595, 0.03166667, 0.00500000, 0.00500000
2596, 0.03333333, 0.00500000, 0.00500000
2597, 0.03500000, 0.00500000, 0.00500000
2598, 0.03666667, 0.00500000, 0.00500000
2599, 0.03833333, 0.00500000, 0.00500000
2600, 0.04000000, 0.00500000, 0.00500000
2601, 0.00000000, 0.00666667, 0.00500000
2602, 0.00166667, 0.00666667, 0.00500000
2603, 0.00333333, 0.00666667, 0.00500000
2604, 0.00500000, 0.00666667, 0.00500000
2605, 0.00666667, 0.00666667, 0.00500000
2606, 0.00833333, 0.00666667, 0.00500000
2607, 0.01000000, 0.00666667, 0.00500000
2608, 0.01166667, 0.00666667, 0.00500000
2609, 0.01333333, 0.00666667, 0.00500000
2610, 0.01500000, 0.00666667, 0.00500000
2611, 0.01666667, 0.00666667, 0.00500000
2612, 0.01833333, 0.00666667, 0.00500000
2613, 0.02000000, 0.00666667, 0.00500000
2614, 0.02166667, 0.00666667, 0.00500000
2615, 0.02333333, 0.00666667, 0.00500000
2616, 0.02500000, 0.00666667, 0.00500000
2617, 0.02666667, 0.00666667, 0.00500000
2618, 0.02833333, 0.00666667, 0.00500000
2619, 0.03000000, 0.00666667, 0.00500000
2620, 0.03166667, 0.00666667, 0.00500000
2621, 0.03333333, 0.00666667, 0.00500000
2622, 0.03500000, 0.00666667, 0.00500000
2623, 0.03666667, 0.00666667, 0.00500000
2624, 0.03833333, 0.00666667, 0.00500000
2625, 0.04000000, 0.00666667, 0.00500000
2626, 0.00000000, 0.00833333, 0.00500000
2627, 0.00166667, 0.00833333, 0.00500000
2628, 0.00333333, 0.00833333, 0.00500000
2629, 0.00500000, 0.00833333, 0.00500000
2630, 0.00666667, 0.00833333, 0.00500000
2631, 0.00833333, 0.00833333, 0.00500000
2632, 0.01000000, 0.00833333, 0.00500000
2633, 0.01166667, 0.00833333, 0.00500000
2634, 0.01333333, 0.00833333, 0.00500000
2635, 0.01500000, 0.00833333, 0.00500000
2636, 0.01666667, 0.00833333, 0.00500000
2637, 0.01833333, 0.00833333, 0.00500000
2638, 0.02000000, 0.00833333, 0.00500000
2639, 0.02166667, 0.00833333, 0.00500000
2640, 0.02333333, 0.00833333, 0.00500000
2641, 0.02500000, 0.00833333, 0.00500000
2642, 0.02666667, 0.00833333, 0.00500000
2643, 0.02833333, 0.00833333, 0.00500000
2644, 0.03000000, 0.00833333, 0.00500000
2645, 0.03166667, 0.00833333, 0.00500000
2646, 0.03333333, 0.00833333, 0.00500000
2647, 0.03500000, 0.00833333, 0.00500000
2648, 0.03666667, 0.00833333, 0.00500000
2649, 0.03833333, 0.00833333, 0.00500000
2650, 0.04000000, 0.00833333, 0.00500000
2651, 0.00000000, 0.01000000, 0.00500000
2652, 0.00166667, 0.01000000, 0.00500000
2653, 0.00333333, 0.01000000, 0.00500000
2654, 0.00500000, 0.01000000, 0.00500000
2655, 0.00666667, 0.01000000, 0.00500000
2656, 0.00833333, 0.01000000, 0.00500000
2657, 0.01000000, 0.01000000, 0.00500000
2658, 0.01166667, 0.01000000, 0.00500000
2659, 0.01333333, 0.01000000, 0.00500000
2660, 0.01500000, 0.01000000, 0.00500000
2661, 0.01666667, 0.01000000, 0.00500000
2662, 0.01833333, 0.01000000, 0.00500000
2663, 0.02000000, 0.01000000, 0.00500000
2664, 0.02166667, 0.01000000, 0.00500000
2665, 0.02333333, 0.01000000, 0.00500000
2666, 0.02500000, 0.01000000, 0.00500000
2667, 0.02666667, 0.01000000, 0.00500000
2668, 0.02833333, 0.01000000, 0.00500000
2669, 0.03000000, 0.01000000, 0.00500000
2670, 0.03166667, 0.01000000, 0.00500000
2671, 0.03333333, 0.01000000, 0.00500000
2672, 0.03500000, 0.01000000, 0.00500000
2673, 0.03666667, 0.01000000, 0.00500000
2674, 0.03833333, 0.01000000, 0.00500000
2675, 0.04000000, 0.01000000, 0.00500000
2676, 0.00000000, 0.01166667, 0.00500000
2677, 0.00166667, 0.01166667, 0.00500000
2678, 0.00333333, 0.01166667, 0.00500000
2679, 0.00500000, 0.01166667, 0.00500000
2680, 0.00666667, 0.01166667, 0.00500000
2681, 0.00833333, 0.01166667, 0.00500000
2682, 0.01000000, 0.01166667, 0.00500000
2683, 0.01166667, 0.01166667, 0.00500000
2684, 0.01333333, 0.01166667, 0.00500000
2685, 0.01500000, 0.01166667, 0.00500000
2686, 0.01666667, 0.01166667, 0.00500000
2687, 0.01833333, 0.01166667, 0.00500000
2688, 0.02000000, 0.01166667, 0.00500000
2689, 0.02166667, 0.01166667, 0.00500000
2690, 0.02333333, 0.01166667, 0.00500000
2691, 0.02500000, 0.01166667, 0.00500000
2692, 0.02666667, 0.01166667, 0.00500000
2693, 0.02833333, 0.01166667, 0.00500000
2694, 0.03000000, 0.01166667, 0.00500000
2695, 0.03166667, 0.01166667, 0.00500000
2696, 0.03333333, 0.01166667, 0.00500000
2697, 0.03500000, 0.01166667, 0.00500000
2698, 0.03666667, 0.01166667, 0.00500000
2699, 0.03833333, 0.01166667, 0.00500000
2700, 0.04000000, 0.01166667, 0.00500000
2701, 0.00000000, 0.01333333, 0.00500000
2702, 0.00166667, 0.01333333, 0.00500000
2703, 0.00333333, 0.01333333, 0.00500000
2704, 0.00500000, 0.01333333, 0.00500000
2705, 0.00666667, 0.01333333, 0.00500000
2706, 0.00833333, 0.01333333, 0.00500000
2707, 0.01000000, 0.01333333, 0.00500000
2708, 0.01166667, 0.01333333, 0.00500000
2709, 0.01333333, 0.01333333, 0.00500000
2710, 0.01500000, 0.01333333, 0.00500000
2711, 0.01666667, 0.01333333, 0.00500000
2712, 0.01833333, 0.01333333, 0.00500000
2713, 0.02000000, 0.01333333, 0.00500000
2714, 0.02166667, 0.01333333, 0.00500000
2715, 0.02333333, 0.01333333, 0.00500000
2716, 0.02500000, 0.01333333, 0.00500000
2717, 0.02666667, 0.01333333, 0.00500000
2718, 0.02833333, 0.01333333, 0.00500000
2719, 0.03000000, 0.01333333, 0.00500000
2720, 0.03166667, 0.01333333, 0.00500000
2721, 0.03333333, 0.01333333, 0.00500000
2722, 0.03500000, 0.01333333, 0.00500000
2723, 0.03666667, 0.01333333, 0.00500000
2724, 0.03833333, 0.01333333, 0.00500000
2725, 0.04000000, 0.01333333, 0.00500000
2726, 0.00000000, 0.01500000, 0.00500000
2727, 0.00166667, 0.01500000, 0.00500000
2728, 0.00333333, 0.01500000, 0.00500000
2729, 0.00500000, 0.01500000, 0.00500000
2730, 0.00666667, 0.01500000, 0.00500000
2731, 0.00833333, 0.01500000, 0.00500000
2732, 0.01000000, 0.01500000, 0.00500000
2733, 0.01166667, 0.01500000, 0.00500000
2734, 0.01333333, 0.01500000, 0.00500000
2735, 0.01500000, 0.01500000, 0.00500000
2736, 0.01666667, 0.01500000, 0.00500000
2737, 0.01833333, 0.01500000, 0.00500000
2738, 0.02000000, 0.01500000, 0.00500000
2739, 0.02166667, 0.01500000, 0.00500000
2740, 0.02333333, 0.01500000, 0.00500000
2741, 0.02500000, 0.01500000, 0.00500000
2742, 0.02666667, 0.01500000, 0.00500000
2743, 0.02833333, 0.01500000, 0.00500000
2744, 0.03000000, 0.01500000, 0.00500000
2745, 0.03166667, 0.01500000, 0.00500000
2746, 0.03333333, 0.01500000, 0.00500000
2747, 0.03500000, 0.01500000, 0.00500000
2748, 0.03666667, 0.01500000, 0.00500000
2749, 0.03833333, 0.01500000, 0.00500000
2750, 0.04000000, 0.01500000, 0.00500000
2751, 0.00000000, 0.01666667, 0.00500000
2752, 0.00166667, 0.01666667, 0.00500000
2753, 0.00333333, 0.01666667, 0.00500000
2754, 0.00500000, 0.01666667, 0.00500000
2755, 0.00666667, 0.01666667, 0.00500000
2756, 0.00833333, 0.01666667, 0.00500000
2757, 0.01000000, 0.01666667, 0.00500000
2758, 0.01166667, 0.01666667, 0.00500000
2759, 0.01333333, 0.01666667, 0.00500000
2760, 0.01500000, 0.01666667, 0.00500000
2761, 0.01666667, 0.01666667, 0.00500000
2762, 0.01833333, 0.01666667, 0.00500000
2763, 0.02000000, 0.01666667, 0.00500000
2764, 0.02166667, 0.01666667, 0.00500000
2765, 0.02333333, 0.01666667, 0.00500000
2766, 0.02500000, 0.01666667, 0.00500000
2767, 0.02666667, 0.01666667, 0.00500000
2768, 0.02833333, 0.01666667, 0.00500000
2769, 0.03000000, 0.01666667, 0.00500000
2770, 0.03166667, 0.01666667, 0.00500000
2771, 0.03333333, 0.01666667, 0.00500000
2772, 0.03500000, 0.01666667, 0.00500000
2773, 0.03666667, 0.01666667, 0.00500000
2774, 0.03833333, 0.01666667, 0.00500000
2775, 0.04000000, 0.01666667, 0.00500000
2776, 0.00000000, 0.01833333, 0.00500000
2777, 0.00166667, 0.01833333, 0.00500000
2778, 0.00333333, 0.01833333, 0.00500000
2779, 0.00500000, 0.01833333, 0.00500000
2780, 0.00666667, 0.01833333, 0.00500000
2781, 0.00833333, 0.01833333, 0.00500000
2782, 0.01000000, 0.01833333, 0.00500000
2783, 0.01166667, 0.01833333, 0.00500000
2784, 0.01333333, 0.01833333, 0.00500000
2785, 0.01500000, 0.01833333, 0.00500000
2786, 0.01666667, 0.01833333, 0.00500000
2787, 0.01833333, 0.01833333, 0.00500000
2788, 0.02000000, 0.01833333, 0.00500000
2789, 0.02166667, 0.01833333, 0.00500000
2790, 0.02333333, 0.01833333, 0.00500000
2791, 0.02500000, 0.01833333, 0.00500000
2792, 0.02666667, 0.01833333, 0.00500000
2793, 0.02833333, 0.01833333, 0.00500000
2794, 0.03000000, 0.01833333, 0.00500000
2795, 0.03166667, 0.01833333, 0.00500000
2796, 0.03333333, 0.01833333, 0.00500000
2797, 0.03500000, 0.01833333, 0.00500000
2798, 0.03666667, 0.01833333, 0.00500000
2799, 0.03833333, 0.01833333, 0.00500000
2800, 0.04000000, 0.01833333, 0.00500000
2801, 0.00000000, 0.02000000, 0.00500000
2802, 0.00166667, 0.02000000, 0.00500000
2803, 0.00333333, 0.02000000, 0.00500000
2804, 0.00500000, 0.02000000, 0.00500000
2805, 0.00666667, 0.02000000, 0.00500000
2806, 0.00833333, 0.02000000, 0.00500000
2807, 0.01000000, 0.02000000, 0.00500000
2808, 0.01166667, 0.02000000, 0.00500000
2809, 0.01333333, 0.02000000, 0.00500000
2810, 0.01500000, 0.02000000, 0.00500000
2811, 0.01666667, 0.02000000, 0.00500000
2812, 0.01833333, 0.02000000, 0.00500000
2813, 0.02000000, 0.02000000, 0.00500000
2814, 0.02166667, 0.02000000, 0.00500000
2815, 0.02333333, 0.02000000, 0.00500000
2816, 0.02500000, 0.02000000, 0.00500000
2817, 0.02666667, 0.02000000, 0.00500000
2818, 0.02833333, 0.02000000, 0.00500000
2819, 0.03000000, 0.02000000, 0.00500000
2820, 0.03166667, 0.02000000, 0.00500000
2821, 0.03333333, 0.02000000, 0.00500000
2822, 0.03500000, 0.02000000, 0.00500000
2823, 0.03666667, 0.02000000, 0.00500000
2824, 0.03833333, 0.02000000, 0.00500000
2825, 0.04000000, 0.02000000, 0.00500000
2826, 0.00000000, 0.02166667, 0.00500000
2827, 0.00166667, 0.02166667, 0.00500000
2828, 0.00333333, 0.02166667, 0.00500000
2829, 0.00500000, 0.02166667, 0.00500000
2830, 0.00666667, 0.02166667, 0.00500000
2831, 0.00833333, 0.02166667, 0.00500000
2832, 0.01000000, 0.02166667, 0.00500000
2833, 0.01166667, 0.02166667, 0.00500000
2834, 0.01333333, 0.02166667, 0.00500000
2835, 0.01500000, 0.02166667, 0.00500000
2836, 0.01666667, 0.02166667, 0.00500000
2837, 0.01833333, 0.02166667, 0.00500000
2838, 0.02000000, 0.02166667, 0.00500000
2839, 0.02166667, 0.02166667, 0.00500000
2840, 0.02333333, 0.02166667, 0.00500000
2841, 0.02500000, 0.02166667, 0.00500000
2842, 0.02666667, 0.02166667, 0.00500000
2843, 0.02833333, 0.02166667, 0.00500000
2844, 0.03000000, 0.02166667, 0.00500000
2845, 0.03166667, 0.02166667, 0.00500000
2846, 0.03333333, 0.02166667, 0.00500000
2847, 0.03500000, 0.02166667, 0.00500000
2848, 0.03666667, 0.02166667, 0.00500000
2849, 0.03833333, 0.02166667, 0.00500000
2850, 0.04000000, 0.02166667, 0.00500000
2851, 0.00000000, 0.02333333, 0.00500000
2852, 0.00166667, 0.02333333, 0.00500000
2853, 0.00333333, 0.02333333, 0.00500000
2854, 0.00500000, 0.02333333, 0.00500000
2855, 0.00666667, 0.02333333, 0.00500000
2856, 0.00833333, 0.02333333, 0.00500000
2857, 0.01000000, 0.02333333, 0.00500000
2858, 0.01166667, 0.02333333, 0.00500000
2859, 0.01333333, 0.02333333, 0.00500000
2860, 0.01500000, 0.02333333, 0.00500000
2861, 0.01666667, 0.02333333, 0.00500000
2862, 0.01833333, 0.02333333, 0.00500000
2863, 0.02000000, 0.02333333, 0.00500000
2864, 0.02166667, 0.02333333, 0.00500000
2865, 0.02333333, 0.02333333, 0.00500000
2866, 0.02500000, 0.02333333, 0.00500000
2867, 0.02666667, 0.02333333, 0.00500000
2868, 0.02833333, 0.02333333, 0.00500000
2869, 0.03000000, 0.02333333, 0.00500000
2870, 0.03166667, 0.02333333, 0.00500000
2871, 0.03333333, 0.02333333, 0.00500000
2872, 0.03500000, 0.02333333, 0.00500000
2873, 0.03666667, 0.02333333, 0.00500000
2874, 0.03833333, 0.02333333, 0.00500000
2875, 0.04000000, 0.02333333, 0.00500000
2876, 0.00000000, 0.02500000, 0.00500000
2877, 0.00166667, 0.02500000, 0.00500000
2878, 0.00333333, 0.02500000, 0.00500000
2879, 0.00500000, 0.02500000, 0.00500000
2880, 0.00666667, 0.02500000, 0.00500000
2881, 0.00833333, 0.02500000, 0.00500000
2882, 0.01000000, 0.02500000, 0.00500000
2883, 0.01166667, 0.02500000, 0.00500000
2884, 0.01333333, 0.02500000, 0.00500000
2885, 0.01500000, 0.02500000, 0.00500000
2886, 0.01666667, 0.02500000, 0.00500000
2887, 0.01833333, 0.02500000, 0.00500000
2888, 0.02000000, 0.02500000, 0.00500000
2889, 0.02166667, 0.02500000, 0.00500000
2890, 0.02333333, 0.02500000, 0.00500000
2891, 0.02500000, 0.02500000, 0.00500000
2892, 0.02666667, 0.02500000, 0.00500000
2893, 0.02833333, 0.02500000, 0.00500000
2894, 0.03000000, 0.02500000, 0.00500000
2895, 0.03166667, 0.02500000, 0.00500000
2896, 0.03333333, 0.02500000, 0.00500000
2897, 0.03500000, 0.02500000, 0.00500000
2898, 0.03666667, 0.02500000, 0.00500000
2899, 0.03833333, 0.02500000, 0.00500000
2900, 0.04000000, 0.02500000, 0.00500000
2901, 0.00000000, 0.02666667, 0.00500000
2902, 0.00166667, 0.02666667, 0.00500000
2903, 0.00333333, 0.02666667, 0.00500000
2904, 0.00500000, 0.02666667, 0.00500000
2905, 0.00666667, 0.02666667, 0.00500000
2906, 0.00833333, 0.02666667, 0.00500000
2907, 0.01000000, 0.02666667, 0.00500000
2908, 0.01166667, 0.02666667, 0.00500000
2909, 0.01333333, 0.02666667, 0.00500000
2910, 0.01500000, 0.02666667, 0.00500000
2911, 0.01666667, 0.02666667, 0.00500000
2912, 0.01833333, 0.02666667, 0.00500000
2913, 0.02000000, 0.02666667, 0.00500000
2914, 0.02166667, 0.02666667, 0.00500000
2915, 0.02333333, 0.02666667, 0.00500000
2916, 0.02500000, 0.02666667, 0.00500000
2917, 0.02666667, 0.02666667, 0.00500000
2918, 0.02833333, 0.02666667, 0.00500000
2919, 0.03000000, 0.02666667, 0.00500000
2920, 0.03166667, 0.02666667, 0.00500000
2921, 0.03333333, 0.02666667, 0.00500000
2922, 0.03500000, 0.02666667, 0.00500000
2923, 0.03666667, 0.02666667, 0.00500000
2924, 0.03833333, 0.02666667, 0.00500000
2925, 0.04000000, 0.02666667, 0.00500000
2926, 0.00000000, 0.02833333, 0.00500000
2927, 0.00166667, 0.02833333, 0.00500000
2928, 0.00333333, 0.02833333, 0.00500000
2929, 0.00500000, 0.02833333, 0.00500000
2930, 0.00666667, 0.02833333, 0.00500000
2931, 0.00833333, 0.02833333, 0.00500000
2932, 0.01000000, 0.02833333, 0.00500000
2933, 0.01166667, 0.02833333, 0.00500000
2934, 0.01333333, 0.02833333, 0.00500000
2935, 0.01500000, 0.02833333, 0.00500000
2936, 0.01666667, 0.02833333, 0.00500000
2937, 0.01833333, 0.02833333, 0.00500000
2938, 0.02000000, 0.02833333, 0.00500000
2939, 0.02166667, 0.02833333, 0.00500000
2940, 0.02333333, 0.02833333, 0.00500000
2941, 0.02500000, 0.02833333, 0.00500000
2942, 0.02666667, 0.02833333, 0.00500000
2943, 0.02833333, 0.02833333, 0.00500000
2944, 0.03000000, 0.02833333, 0.00500000
2945, 0.03166667, 0.02833333, 0.00500000
2946, 0.03333333, 0.02833333, 0.00500000
2947, 0.03500000, 0.02833333, 0.00500000
2948, 0.03666667, 0.02833333, 0.00500000
2949, 0.03833333, 0.02833333, 0.00500000
2950, 0.04000000, 0.02833333, 0.00500000
2951, 0.00000000, 0.03000000, 0.00500000
2952, 0.00166667, 0.03000000, 0.00500000
2953, 0.00333333, 0.03000000, 0.00500000
2954, 0.00500000, 0.03000000, 0.00500000
2955, 0.00666667, 0.03000000, 0.00500000
2956, 0.00833333, 0.03000000, 0.00500000
2957, 0.01000000, 0.03000000, 0.00500000
2958, 0.01166667, 0.03000000, 0.00500000
2959, 0.01333333, 0.03000000, 0.00500000
2960, 0.01500000, 0.03000000, 0.00500000
2961, 0.01666667, 0.03000000, 0.00500000
2962, 0.01833333, 0.03000000, 0.00500000
2963, 0.02000000, 0.03000000, 0.00500000
2964, 0.02166667, 0.03000000, 0.00500000
2965, 0.02333333, 0.03000000, 0.00500000
2966, 0.02500000, 0.03000000, 0.00500000
2967, 0.02666667, 0.03000000, 0.00500000
2968, 0.02833333, 0.03000000, 0.00500000
2969, 0.03000000, 0.03000000, 0.00500000
2970, 0.03166667, 0.03000000, 0.00500000
2971, 0.03333333, 0.03000000, 0.00500000
2972, 0.03500000, 0.03000000, 0.00500000
2973, 0.03666667, 0.03000000, 0.00500000
2974, 0.03833333, 0.03000000, 0.00500000
2975, 0.04000000, 0.03000000, 0.00500000
2976, 0.00000000, 0.03166667, 0.00500000
2977, 0.00166667, 0.03166667, 0.00500000
2978, 0.00333333, 0.03166667, 0.00500000
2979, 0.00500000, 0.03166667, 0.00500000
2980, 0.00666667, 0.03166667, 0.00500000
2981, 0.00833333, 0.03166667, 0.00500000
2982, 0.01000000, 0.03166667, 0.00500000
2983, 0.01166667, 0.03166667, 0.00500000
2984, 0.01333333, 0.03166667, 0.00500000
2985, 0.01500000, 0.03166667, 0.00500000
2986, 0.01666667, 0.03166667, 0.00500000
2987, 0.01833333, 0.03166667, 0.00500000
2988, 0.02000000, 0.03166667, 0.00500000
2989, 0.02166667, 0.03166667, 0.00500000
2990, 0.02333333, 0.03166667, 0.00500000
2991, 0.02500000, 0.03166667, 0.00500000
2992, 0.02666667, 0.03166667, 0.00500000
2993, 0.02833333, 0.03166667, 0.00500000
2994, 0.03000000, 0.03166667, 0.00500000
2995, 0.03166667, 0.03166667, 0.00500000
2996, 0.03333333, 0.03166667, 0.00500000
2997, 0.03500000, 0.03166667, 0.00500000
2998, 0.03666667, 0.03166667, 0.00500000
2999, 0.03833333, 0.03166667, 0.00500000
3000, 0.04000000, 0.03166667, 0.00500000
3001, 0.00000000, 0.03333333, 0.00500000
3002, 0.00166667, 0.03333333, 0.00500000
3003, 0.00333333, 0.03333333, 0.00500000
3004, 0.00500000, 0.03333333, 0.00500000
3005, 0.00666667, 0.03333333, 0.00500000
3006, 0.00833333, 0.03333333, 0.00500000
3007, 0.01000000, 0.03333333, 0.00500000
3008, 0.01166667, 0.03333333, 0.00500000
3009, 0.01333333, 0.03333333, 0.00500000
3010, 0.01500000, 0.03333333, 0.00500000
3011, 0.01666667, 0.03333333, 0.00500000
3012, 0.01833333, 0.03333333, 0.00500000
3013, 0.02000000, 0.03333333, 0.00500000
3014, 0.02166667, 0.03333333, 0.00500000
3015, 0.02333333, 0.03333333, 0.00500000
3016, 0.02500000, 0.03333333, 0.00500000
3017, 0.02666667, 0.03333333, 0.00500000
3018, 0.02833333, 0.03333333, 0.00500000
3019, 0.03000000, 0.03333333, 0.00500000
3020, 0.03166667, 0.03333333, 0.00500000
3021, 0.03333333, 0.03333333, 0.00500000
3022, 0.03500000, 0.03333333, 0.00500000
3023, 0.03666667, 0.03333333, 0.00500000
3024, 0.03833333, 0.03333333, 0.00500000
3025, 0.04000000, 0.03333333, 0.00500000
3026, 0.00000000, 0.03500000, 0.00500000
3027, 0.00166667, 0.03500000, 0.00500000
3028, 0.00333333, 0.03500000, 0.00500000
3029, 0.00500000, 0.03500000, 0.00500000
3030, 0.00666667, 0.03500000, 0.00500000
3031, 0.00833333, 0.03500000, 0.00500000
3032, 0.01000000, 0.03500000, 0.00500000
3033, 0.01166667, 0.03500000, 0.00500000
3034, 0.01333333, 0.03500000, 0.00500000
3035, 0.01500000, 0.03500000, 0.00500000
3036, 0.01666667, 0.03500000, 0.00500000
3037, 0.01833333, 0.03500000, 0.00500000
3038, 0.02000000, 0.03500000, 0.00500000
3039, 0.02166667, 0.03500000, 0.00500000
3040, 0.02333333, 0.03500000, 0.00500000
3041, 0.02500000, 0.03500000, 0.00500000
3042, 0.02666667, 0.03500000, 0.00500000
3043, 0.02833333, 0.03500000, 0.00500000
3044, 0.03000000, 0.03500000, 0.00500000
3045, 0.03166667, 0.03500000, 0.00500000
3046, 0.03333333, 0.03500000, 0.00500000
3047, 0.03500000, 0.03500000, 0.00500000
3048, 0.03666667, 0.03500000, 0.00500000
3049, 0.03833333, 0.03500000, 0.00500000
3050, 0.04000000, 0.03500000, 0.00500000
3051, 0.00000000, 0.03666667, 0.00500000
3052, 0.00166667, 0.03666667, 0.00500000
3053, 0.00333333, 0.03666667, 0.00500000
3054, 0.00500000, 0.03666667, 0.00500000
3055, 0.00666667, 0.03666667, 0.00500000
3056, 0.00833333, 0.03666667, 0.00500000
3057, 0.01000000, 0.03666667, 0.00500000
3058, 0.01166667, 0.03666667, 0.00500000
3059, 0.01333333, 0.03666667, 0.00500000
3060, 0.01500000, 0.03666667, 0.00500000
3061, 0.01666667, 0.03666667, 0.00500000
3062, 0.01833333, 0.03666667, 0.00500000
3063, 0.02000000, 0.03666667, 0.00500000
3064, 0.02166667, 0.03666667, 0.00500000
3065, 0.02333333, 0.03666667, 0.00500000
3066, 0.02500000, 0.03666667, 0.00500000
3067, 0.02666667, 0.03666667, 0.00500000
3068, 0.02833333, 0.03666667, 0.00500000
3069, 0.03000000, 0.03666667, 0.00500000
3070, 0.03166667, 0.03666667, 0.00500000
3071, 0.03333333, 0.03666667, 0.00500000
3072, 0.03500000, 0.03666667, 0.00500000
3073, 0.03666667, 0.03666667, 0.00500000
3074, 0.03833333, 0.03666667, 0.00500000
3075, 0.04000000, 0.03666667, 0.00500000
3076, 0.00000000, 0.03833333, 0.00500000
3077, 0.00166667, 0.03833333, 0.00500000
3078, 0.00333333, 0.03833333, 0.00500000
3079, 0.00500000, 0.03833333, 0.00500000
3080, 0.00666667, 0.03833333, 0.00500000
3081, 0.00833333, 0.03833333, 0.00500000
3082, 0.01000000, 0.03833333, 0.00500000
3083, 0.01166667, 0.03833333, 0.00500000
3084, 0.01333333, 0.03833333, 0.00500000
3085, 0.01500000, 0.03833333, 0.00500000
3086, 0.01666667, 0.03833333, 0.00500000
3087, 0.01833333, 0.03833333, 0.00500000
3088, 0.02000000, 0.03833333, 0.00500000
3089, 0.02166667, 0.03833333, 0.00500000
3090, 0.02333333, 0.03833333, 0.00500000
3091, 0.02500000, 0.03833333, 0.00500000
3092, 0.02666667, 0.03833333, 0.00500000
3093, 0.02833333, 0.03833333, 0.00500000
3094, 0.03000000, 0.03833333, 0.00500000
3095, 0.03166667, 0.03833333, 0.00500000
3096, 0.03333333, 0.03833333, 0.00500000
3097, 0.03500000, 0.03833333, 0.00500000
3098, 0.03666667, 0.03833333, 0.00500000
3099, 0.03833333, 0.03833333, 0.00500000
3100, 0.04000000, 0.03833333, 0.00500000
3101, 0.00000000, 0.04000000, 0.00500000
3102, 0.00166667, 0.04000000, 0.00500000
3103, 0.00333333, 0.04000000, 0.00500000
3104, 0.00500000, 0.04000000, 0.00500000
3105, 0.00666667, 0.04000000, 0.00500000
3106, 0.00833333, 0.04000000, 0.00500000
3107, 0.01000000, 0.04000000, 0.00500000
3108, 0.01166667, 0.04000000, 0.00500000
3109, 0.01333333, 0.04000000, 0.00500000
3110, 0.01500000, 0.04000000, 0.00500000
3111, 0.01666667, 0.04000000, 0.00500000
3112, 0.01833333, 0.04000000, 0.00500000
3113, 0.02000000, 0.04000000, 0.00500000
3114, 0.02166667, 0.04000000, 0.00500000
3115, 0.02333333, 0.04000000, 0.00500000
3116, 0.02500000, 0.04000000, 0.00500000
3117, 0.02666667, 0.04000000, 0.00500000
3118, 0.02833333, 0.04000000, 0.00500000
3119, 0.03000000, 0.04000000, 0.00500000
3120, 0.03166667, 0.04000000, 0.00500000
3121, 0.03333333, 0.04000000, 0.00500000
3122, 0.03500000, 0.04000000, 0.00500000
3123, 0.03666667, 0.04000000, 0.00500000
3124, 0.03833333, 0.04000000, 0.00500000
3125, 0.04000000, 0.04000000, 0.00500000
3126, 0.00000000, 0.00000000, 0.00625000
3127, 0.00166667, 0.00000000, 0.00625000
3128, 0.00333333, 0.00000000, 0.00625000
3129, 0.00500000, 0.00000000, 0.00625000
3130, 0.00666667, 0.00000000, 0.00625000
3131, 0.00833333, 0.00000000, 0.00625000
3132, 0.01000000, 0.00000000, 0.00625000
3133, 0.01166667, 0.00000000, 0.00625000
3134, 0.01333333, 0.00000000, 0.00625000
3135, 0.01500000, 0.00000000, 0.00625000
3136, 0.01666667, 0.00000000, 0.00625000
3137, 0.01833333, 0.00000000, 0.00625000
3138, 0.02000000, 0.00000000, 0.00625000
3139, 0.02166667, 0.00000000, 0.00625000
3140, 0.02333333, 0.00000000, 0.00625000
3141, 0.02500000, 0.00000000, 0.00625000
3142, 0.02666667, 0.00000000, 0.00625000
3143, 0.02833333, 0.00000000, 0.00625000
3144, 0.03000000, 0.00000000, 0.00625000
3145, 0.03166667, 0.00000000, 0.00625000
3146, 0.03333333, 0.00000000, 0.00625000
3147, 0.03500000, 0.00000000, 0.00625000
3148, 0.03666667, 0.00000000, 0.00625000
3149, 0.03833333, 0.00000000, 0.00625000
3150, 0.04000000, 0.00000000, 0.00625000
3151, 0.00000000, 0.00166667, 0.00625000
3152, 0.00166667, 0.00166667, 0.00625000
3153, 0.00333333, 0.00166667, 0.00625000
3154, 0.00500000, 0.00166667, 0.00625000
3155, 0.00666667, 0.00166667, 0.00625000
3156, 0.00833333, 0.00166667, 0.00625000
3157, 0.01000000, 0.00166667, 0.00625000
3158, 0.01166667, 0.00166667, 0.00625000
3159, 0.01333333, 0.00166667, 0.00625000
3160, 0.01500000, 0.00166667, 0.00625000
3161, 0.01666667, 0.00166667, 0.00625000
3162, 0.01833333, 0.00166667, 0.00625000
3163, 0.02000000, 0.00166667, 0.00625000
3164, 0.02166667, 0.00166667, 0.00625000
3165, 0.02333333, 0.00166667, 0.00625000
3166, 0.02500000, 0.00166667, 0.00625000
3167, 0.02666667, 0.00166667, 0.00625000
3168, 0.02833333, 0.00166667, 0.00625000
3169, 0.03000000, 0.00166667, 0.00625000
3170, 0.03166667, 0.00166667, 0.00625000
3171, 0.03333333, 0.00166667, 0.00625000
3172, 0.03500000, 0.00166667, 0.00625000
3173, 0.03666667, 0.00166667, 0.00625000
3174, 0.03833333, 0.00166667, 0.00625000
3175, 0.04000000, 0.00166667, 0.00625000
3176, 0.00000000, 0.00333333, 0.00625000
3177, 0.00166667, 0.00333333, 0.00625000
3178, 0.00333333, 0.00333333, 0.00625000
3179, 0.00500000, 0.00333333, 0.00625000
3180, 0.00666667, 0.00333333, 0.00625000
3181, 0.00833333, 0.00333333, 0.00625000
3182, 0.01000000, 0.00333333, 0.00625000
3183, 0.01166667, 0.00333333, 0.00625000
3184, 0.01333333, 0.00333333, 0.00625000
3185, 0.01500000, 0.00333333, 0.00625000
3186, 0.01666667, 0.00333333, 0.00625000
3187, 0.01833333, 0.00333333, 0.00625000
3188, 0.02000000, 0.00333333, 0.00625000
3189, 0.02166667, 0.00333333, 0.00625000
3190, 0.02333333, 0.00333333, 0.00625000
3191, 0.02500000, 0.00333333, 0.00625000
3192, 0.02666667, 0.00333333, 0.00625000
3193, 0.02833333, 0.00333333, 0.00625000
3194, 0.03000000, 0.00333333, 0.00625000
3195, 0.03166667, 0.00333333, 0.00625000
3196, 0.03333333, 0.00333333, 0.00625000
3197, 0.03500000, 0.00333333, 0.00625000
3198, 0.03666667, 0.00333333, 0.00625000
3199, 0.03833333, 0.00333333, 0.00625000
3200, 0.04000000, 0.00333333, 0.00625000
3201, 0.00000000, 0.00500000, 0.00625000
3202, 0.00166667, 0.00500000, 0.00625000
3203, 0.00333333, 0.00500000, 0.00625000
3204, 0.00500000, 0.00500000, 0.00625000
3205, 0.00666667, 0.00500000, 0.00625000
3206, 0.00833333, 0.00500000, 0.00625000
3207, 0.01000000, 0.00500000, 0.00625000
3208, 0.01166667, 0.00500000, 0.00625000
3209, 0.01333333, 0.00500000, 0.00625000
3210, 0.01500000, 0.00500000, 0.00625000
3211, 0.01666667, 0.00500000, 0.00625000
3212, 0.01833333, 0.00500000, 0.00625000
3213, 0.02000000, 0.00500000, 0.00625000
3214, 0.02166667, 0.00500000, 0.00625000
3215, 0.02333333, 0.00500000, 0.00625000
3216, 0.02500000, 0.00500000, 0.00625000
3217, 0.02666667, 0.00500000, 0.00625000
3218, 0.02833333, 0.00500000, 0.00625000
3219, 0.03000000, 0.00500000, 0.00625000
3220, 0.03166667, 0.00500000, 0.00625000
3221, 0.03333333, 0.00500000, 0.00625000
3222, 0.03500000, 0.00500000, 0.00625000
3223, 0.03666667, 0.00500000, 0.00625000
3224, 0.03833333, 0.00500000, 0.00625000
3225, 0.04000000, 0.00500000, 0.00625000
3226, 0.00000000, 0.00666667, 0.00625000
3227, 0.00166667, 0.00666667, 0.00625000
3228, 0.00333333, 0.00666667, 0.00625000
3229, 0.00500000, 0.00666667, 0.00625000
3230, 0.00666667, 0.00666667, 0.00625000
3231, 0.00833333, 0.00666667, 0.00625000
3232, 0.01000000, 0.00666667, 0.00625000
3233, 0.01166667, 0.00666667, 0.00625000
3234, 0.01333333, 0.00666667, 0.00625000
3235, 0.01500000, 0.00666667, 0.00625000
3236, 0.01666667, 0.00666667, 0.00625000
3237, 0.01833333, 0.00666667, 0.00625000
3238, 0.02000000, 0.00666667, 0.00625000
3239, 0.02166667, 0.00666667, 0.00625000
3240, 0.02333333, 0.00666667, 0.00625000
3241, 0.02500000, 0.00666667, 0.00625000
3242, 0.02666667, 0.00666667, 0.00625000
3243, 0.02833333, 0.00666667, 0.00625000
3244, 0.03000000, 0.00666667, 0.00625000
3245, 0.03166667, 0.00666667, 0.00625000
3246, 0.03333333, 0.00666667, 0.00625000
3247, 0.03500000, 0.00666667, 0.00625000
3248, 0.03666667, 0.00666667, 0.00625000
3249, 0.03833333, 0.00666667, 0.00625000
3250, 0.04000000, 0.00666667, 0.00625000
3251, 0.00000000, 0.00833333, 0.00625000
3252, 0.00166667, 0.00833333, 0.00625000
3253, 0.00333333, 0.00833333, 0.00625000
3254, 0.00500000, 0.00833333, 0.00625000
3255, 0.00666667, 0.00833333, 0.00625000
3256, 0.00833333, 0.00833333, 0.00625000
3257, 0.01000000, 0.00833333, 0.00625000
3258, 0.01166667, 0.00833333, 0.00625000
3259, 0.01333333, 0.00833333, 0.00625000
3260, 0.01500000, 0.00833333, 0.00625000
3261, 0.01666667, 0.00833333, 0.00625000
3262, 0.01833333, 0.00833333, 0.00625000
3263, 0.02000000, 0.00833333, 0.00625000
3264, 0.02166667, 0.00833333, 0.00625000
3265, 0.02333333, 0.00833333, 0.00625000
3266, 0.02500000, 0.00833333, 0.00625000
3267, 0.02666667, 0.00833333, 0.00625000
3268, 0.02833333, 0.00833333, 0.00625000
3269, 0.03000000, 0.00833333, 0.00625000
3270, 0.03166667, 0.00833333, 0.00625000
3271, 0.03333333, 0.00833333, 0.00625000
3272, 0.03500000, 0.00833333, 0.00625000
3273, 0.03666667, 0.00833333, 0.00625000
3274, 0.03833333, 0.00833333, 0.00625000
3275, 0.04000000, 0.00833333, 0.00625000
3276, 0.00000000, 0.01000000, 0.00625000
3277, 0.00166667, 0.01000000, 0.00625000
3278, 0.00333333, 0.01000000, 0.00625000
3279, 0.00500000, 0.01000000, 0.00625000
3280, 0.00666667, 0.01000000, 0.00625000
3281, 0.00833333, 0.01000000, 0.00625000
3282, 0.01000000, 0.01000000, 0.00625000
3283, 0.01166667, 0.01000000, 0.00625000
3284, 0.01333333, 0.01000000, 0.00625000
3285, 0.01500000, 0.01000000, 0.00625000
3286, 0.01666667, 0.01000000, 0.00625000
3287, 0.01833333, 0.01000000, 0.00625000
3288, 0.02000000, 0.01000000, 0.00625000
3289, 0.02166667, 0.01000000, 0.00625000
3290, 0.02333333, 0.01000000, 0.00625000
3291, 0.02500000, 0.01000000, 0.00625000
3292, 0.02666667, 0.01000000, 0.00625000
3293, 0.02833333, 0.01000000, 0.00625000
3294, 0.03000000, 0.01000000, 0.00625000
3295, 0.03166667, 0.01000000, 0.00625000
3296, 0.03333333, 0.01000000, 0.00625000
3297, 0.03500000, 0.01000000, 0.00625000
3298, 0.03666667, 0.01000000, 0.00625000
3299, 0.03833333, 0.01000000, 0.00625000
3300, 0.04000000, 0.01000000, 0.00625000
3301, 0.00000000, 0.01166667, 0.00625000
3302, 0.00166667, 0.01166667, 0.00625000
3303, 0.00333333, 0.01166667, 0.00625000
3304, 0.00500000, 0.01166667, 0.00625000
3305, 0.00666667, 0.01166667, 0.00625000
3306, 0.00833333, 0.01166667, 0.00625000
3307, 0.01000000, 0.01166667, 0.00625000
3308, 0.01166667, 0.01166667, 0.00625000
3309, 0.01333333, 0.01166667, 0.00625000
3310, 0.01500000, 0.01166667, 0.00625000
3311, 0.01666667, 0.01166667, 0.00625000
3312, 0.01833333, 0.01166667, 0.00625000
3313, 0.02000000, 0.01166667, 0.00625000
3314, 0.02166667, 0.01166667, 0.00625000
3315, 0.02333333, 0.01166667, 0.00625000
3316, 0.02500000, 0.01166667, 0.00625000
3317, 0.02666667, 0.01166667, 0.00625000
3318, 0.02833333, 0.01166667, 0.00625000
3319, 0.03000000, 0.01166667, 0.00625000
3320, 0.03166667, 0.01166667, 0.00625000
3321, 0.03333333, 0.01166667, 0.00625000
3322, 0.03500000, 0.01166667, 0.00625000
3323, 0.03666667, 0.01166667, 0.00625000
3324, 0.03833333, 0.01166667, 0.00625000
3325, 0.04000000, 0.01166667, 0.00625000
3326, 0.00000000, 0.01333333, 0.00625000
3327, 0.00166667, 0.01333333, 0.00625000
3328, 0.00333333, 0.01333333, 0.00625000
3329, 0.00500000, 0.01333333, 0.00625000
3330, 0.00666667, 0.01333333, 0.00625000
3331, 0.00833333, 0.01333333, 0.00625000
3332, 0.01000000, 0.01333333, 0.00625000
3333, 0.01166667, 0.01333333, 0.00625000
3334, 0.01333333, 0.01333333, 0.00625000
3335, 0.01500000, 0.01333333, 0.00625000
3336, 0.01666667, 0.01333333, 0.00625000
3337, 0.01833333, 0.01333333, 0.00625000
3338, 0.02000000, 0.01333333, 0.00625000
3339, 0.02166667, 0.01333333, 0.00625000
3340, 0.02333333, 0.01333333, 0.00625000
3341, 0.02500000, 0.01333333, 0.00625000
3342, 0.02666667, 0.01333333, 0.00625000
3343, 0.02833333, 0.01333333, 0.00625000
3344, 0.03000000, 0.01333333, 0.00625000
3345, 0.03166667, 0.01333333, 0.00625000
3346, 0.03333333, 0.01333333, 0.00625000
3347, 0.03500000, 0.01333333, 0.00625000
3348, 0.03666667, 0.01333333, 0.00625000
3349, 0.03833333, 0.01333333, 0.00625000
3350, 0.04000000, 0.01333333, 0.00625000
3351, 0.00000000, 0.01500000, 0.00625000
3352, 0.00166667, 0.01500000, 0.00625000
3353, 0.00333333, 0.01500000, 0.00625000
3354, 0.00500000, 0.01500000, 0.00625000
3355, 0.00666667, 0.01500000, 0.00625000
3356, 0.00833333, 0.01500000, 0.00625000
3357, 0.01000000, 0.01500000, 0.00625000
3358, 0.01166667, 0.01500000, 0.00625000
3359, 0.01333333, 0.01500000, 0.00625000
3360, 0.01500000, 0.01500000, 0.00625000
3361, 0.01666667, 0.01500000, 0.00625000
3362, 0.01833333, 0.01500000, 0.00625000
3363, 0.02000000, 0.01500000, 0.00625000
3364, 0.02166667, 0.01500000, 0.00625000
3365, 0.02333333, 0.01500000, 0.00625000
3366, 0.02500000, 0.01500000, 0.00625000
3367, 0.02666667, 0.01500000, 0.00625000
3368, 0.02833333, 0.01500000, 0.00625000
3369, 0.03000000, 0.01500000, 0.00625000
3370, 0.03166667, 0.01500000, 0.00625000
3371, 0.03333333, 0.01500000, 0.00625000
3372, 0.03500000, 0.01500000, 0.00625000
3373, 0.03666667, 0.01500000, 0.00625000
3374, 0.03833333, 0.01500000, 0.00625000
3375, 0.04000000, 0.01500000, 0.00625000
3376, 0.00000000, 0.01666667, 0.00625000
3377, 0.00166667, 0.01666667, 0.00625000
3378, 0.00333333, 0.01666667, 0.00625000
3379, 0.00500000, 0.01666667, 0.00625000
3380, 0.00666667, 0.01666667, 0.00625000
3381, 0.00833333, 0.01666667, 0.00625000
3382, 0.01000000, 0.01666667, 0.00625000
3383, 0.01166667, 0.01666667, 0.00625000
3384, 0.01333333, 0.01666667, 0.00625000
3385, 0.01500000, 0.01666667, 0.00625000
3386, 0.01666667, 0.01666667, 0.00625000
3387, 0.01833333, 0.01666667, 0.00625000
3388, 0.02000000, 0.01666667, 0.00625000
3389, 0.02166667, 0.01666667, 0.00625000
3390, 0.02333333, 0.01666667, 0.00625000
3391, 0.02500000, 0.01666667, 0.00625000
3392, 0.02666667, 0.01666667, 0.00625000
3393, 0.02833333, 0.01666667, 0.00625000
3394, 0.03000000, 0.01666667, 0.00625000
3395, 0.03166667, 0.01666667, 0.00625000
3396, 0.03333333, 0.01666667, 0.00625000
3397, 0.03500000, 0.01666667, 0.00625000
3398, 0.03666667, 0.01666667, 0.00625000
3399, 0.03833333, 0.01666667, 0.00625000
3400, 0.04000000, 0.01666667, 0.00625000
3401, 0.00000000, 0.01833333, 0.00625000
3402, 0.00166667, 0.01833333, 0.00625000
3403, 0.00333333, 0.01833333, 0.00625000
3404, 0.00500000, 0.01833333, 0.00625000
3405, 0.00666667, 0.01833333, 0.00625000
3406, 0.00833333, 0.01833333, 0.00625000
3407, 0.01000000, 0.01833333, 0.00625000
3408, 0.01166667, 0.01833333, 0.00625000
3409, 0.01333333, 0.01833333, 0.00625000
3410, 0.01500000, 0.01833333, 0.00625000
3411, 0.01666667, 0.01833333, 0.00625000
3412, 0.01833333, 0.01833333, 0.00625000
3413, 0.02000000, 0.01833333, 0.00625000
3414, 0.02166667, 0.01833333, 0.00625000
3415, 0.02333333, 0.01833333, 0.00625000
3416, 0.02500000, 0.01833333, 0.00625000
3417, 0.02666667, 0.01833333, 0.00625000
3418, 0.02833333, 0.01833333, 0.00625000
3419, 0.03000000, 0.01833333, 0.00625000
3420, 0.03166667, 0.01833333, 0.00625000
3421, 0.03333333, 0.01833333, 0.00625000
3422, 0.03500000, 0.01833333, 0.00625000
3423, 0.03666667, 0.01833333, 0.00625000
3424, 0.03833333, 0.01833333, 0.00625000
3425, 0.04000000, 0.01833333, 0.00625000
3426, 0.00000000, 0.02000000, 0.00625000
3427, 0.00166667, 0.02000000, 0.00625000
3428, 0.00333333, 0.02000000, 0.00625000
3429, 0.00500000, 0.02000000, 0.00625000
3430, 0.00666667, 0.02000000, 0.00625000
3431, 0.00833333, 0.02000000, 0.00625000
3432, 0.01000000, 0.02000000, 0.00625000
3433, 0.01166667, 0.02000000, 0.00625000
3434, 0.01333333, 0.02000000, 0.00625000
3435, 0.01500000, 0.02000000, 0.00625000
3436, 0.01666667, 0.02000000, 0.00625000
3437, 0.01833333, 0.02000000, 0.00625000
3438, 0.02000000, 0.02000000, 0.00625000
3439, 0.02166667, 0.02000000, 0.00625000
3440, 0.02333333, 0.02000000, 0.00625000
3441, 0.02500000, 0.02000000, 0.00625000
3442, 0.02666667, 0.02000000, 0.00625000
3443, 0.02833333, 0.02000000, 0.00625000
3444, 0.03000000, 0.02000000, 0.00625000
3445, 0.03166667, 0.02000000, 0.00625000
3446, 0.03333333, 0.02000000, 0.00625000
3447, 0.03500000, 0.02000000, 0.00625000
3448, 0.03666667, 0.02000000, 0.00625000
3449, 0.03833333, 0.02000000, 0.00625000
3450, 0.04000000, 0.02000000, 0.00625000
3451, 0.00000000, 0.02166667, 0.00625000
3452, 0.00166667, 0.02166667, 0.00625000
3453, 0.00333333, 0.02166667, 0.00625000
3454, 0.00500000, 0.02166667, 0.00625000
3455, 0.00666667, 0.02166667, 0.00625000
3456, 0.00833333, 0.02166667, 0.00625000
3457, 0.01000000, 0.02166667, 0.00625000
3458, 0.01166667, 0.02166667, 0.00625000
3459, 0.01333333, 0.02166667, 0.00625000
3460, 0.01500000, 0.02166667, 0.00625000
3461, 0.01666667, 0.02166667, 0.00625000
3462, 0.01833333, 0.02166667, 0.00625000
3463, 0.02000000, 0.02166667, 0.00625000
3464, 0.02166667, 0.02166667, 0.00625000
3465, 0.02333333, 0.02166667, 0.00625000
3466, 0.02500000, 0.02166667, 0.00625000
3467, 0.02666667, 0.02166667, 0.00625000
3468, 0.02833333, 0.02166667, 0.00625000
3469, 0.03000000, 0.02166667, 0.00625000
3470, 0.03166667, 0.02166667, 0.00625000
3471, 0.03333333, 0.02166667, 0.00625000
3472, 0.03500000, 0.02166667, 0.00625000
3473, 0.03666667, 0.02166667, 0.00625000
3474, 0.03833333, 0.02166667, 0.00625000
3475, 0.04000000, 0.02166667, 0.00625000
3476, 0.00000000, 0.02333333, 0.00625000
3477, 0.00166667, 0.02333333, 0.00625000
3478, 0.00333333, 0.02333333, 0.00625000
3479, 0.00500000, 0.02333333, 0.00625000
3480, 0.00666667, 0.02333333, 0.00625000
3481, 0.00833333, 0.02333333, 0.00625000
3482, 0.01000000, 0.02333333, 0.00625000
3483, 0.01166667, 0.02333333, 0.00625000
3484, 0.01333333, 0.02333333, 0.00625000
3485, 0.01500000, 0.02333333, 0.00625000
3486, 0.01666667, 0.02333333, 0.00625000
3487, 0.01833333, 0.02333333, 0.00625000
3488, 0.02000000, 0.02333333, 0.00625000
3489, 0.02166667, 0.02333333, 0.00625000
3490, 0.02333333, 0.02333333, 0.00625000
3491, 0.02500000, 0.02333333, 0.00625000
3492, 0.02666667, 0.02333333, 0.00625000
3493, 0.02833333, 0.02333333, 0.00625000
3494, 0.03000000, 0.02333333, 0.00625000
3495, 0.03166667, 0.02333333, 0.00625000
3496, 0.03333333, 0.02333333, 0.00625000
3497, 0.03500000, 0.02333333, 0.00625000
3498, 0.03666667, 0.02333333, 0.00625000
3499, 0.03833333, 0.02333333, 0.00625000
3500, 0.04000000, 0.02333333, 0.00625000
3501, 0.00000000, 0.02500000, 0.00625000
3502, 0.00166667, 0.02500000, 0.00625000
3503, 0.00333333, 0.02500000, 0.00625000
3504, 0.00500000, 0.02500000, 0.00625000
3505, 0.00666667, 0.02500000, 0.00625000
3506, 0.00833333, 0.02500000, 0.00625000
3507, 0.01000000, 0.02500000, 0.00625000
3508, 0.01166667, 0.02500000, 0.00625000
3509, 0.01333333, 0.02500000, 0.00625000
3510, 0.01500000, 0.02500000, 0.00625000
3511, 0.01666667, 0.02500000, 0.00625000
3512, 0.01833333, 0.02500000, 0.00625000
3513, 0.02000000, 0.02500000, 0.00625000
3514, 0.02166667, 0.02500000, 0.00625000
3515, 0.02333333, 0.02500000, 0.00625000
3516, 0.02500000, 0.02500000, 0.00625000
3517, 0.02666667, 0.02500000, 0.00625000
3518, 0.02833333, 0.02500000, 0.00625000
3519, 0.03000000, 0.02500000, 0.00625000
3520, 0.03166667, 0.02500000, 0.00625000
3521, 0.03333333, 0.02500000, 0.00625000
3522, 0.03500000, 0.02500000, 0.00625000
3523, 0.03666667, 0.02500000, 0.00625000
3524, 0.03833333, 0.02500000, 0.00625000
3525, 0.04000000, 0.02500000, 0.00625000
3526, 0.00000000, 0.02666667, 0.00625000
3527, 0.00166667, 0.02666667, 0.00625000
3528, 0.00333333, 0.02666667, 0.00625000
3529, 0.00500000, 0.02666667, 0.00625000
3530, 0.00666667, 0.02666667, 0.00625000
3531, 0.00833333, 0.02666667, 0.00625000
3532, 0.01000000, 0.02666667, 0.00625000
3533, 0.01166667, 0.02666667, 0.00625000
3534, 0.01333333, 0.02666667, 0.00625000
3535, 0.01500000, 0.02666667, 0.00625000
3536, 0.01666667, 0.02666667, 0.00625000
3537, 0.01833333, 0.02666667, 0.00625000
3538, 0.02000000, 0.02666667, 0.00625000
3539, 0.02166667, 0.02666667, 0.00625000
3540, 0.02333333, 0.02666667, 0.00625000
3541, 0.02500000, 0.02666667, 0.00625000
3542, 0.02666667, 0.02666667, 0.00625000
3543, 0.02833333, 0.02666667, 0.00625000
3544, 0.03000000, 0.02666667, 0.00625000
3545, 0.03166667, 0.02666667, 0.00625000
3546, 0.03333333, 0.02666667, 0.00625000
3547, 0.03500000, 0.02666667, 0.00625000
3548, 0.03666667, 0.02666667, 0.00625000
3549, 0.03833333, 0.02666667, 0.00625000
3550, 0.04000000, 0.02666667, 0.00625000
3551, 0.00000000, 0.02833333, 0.00625000
3552, 0.00166667, 0.02833333, 0.00625000
3553, 0.00333333, 0.02833333, 0.00625000
3554, 0.00500000, 0.02833333, 0.00625000
3555, 0.00666667, 0.02833333, 0.00625000
3556, 0.00833333, 0.02833333, 0.00625000
3557, 0.01000000, 0.02833333, 0.00625000
3558, 0.01166667, 0.02833333, 0.00625000
3559, 0.01333333, 0.02833333, 0.00625000
3560, 0.01500000, 0.02833333, 0.00625000
3561, 0.01666667, 0.02833333, 0.00625000
3562, 0.01833333, 0.02833333, 0.00625000
3563, 0.02000000, 0.02833333, 0.00625000
3564, 0.02166667, 0.02833333, 0.00625000
3565, 0.02333333, 0.02833333, 0.00625000
3566, 0.02500000, 0.02833333, 0.00625000
3567, 0.02666667, 0.02833333, 0.00625000
3568, 0.02833333, 0.02833333, 0.00625000
3569, 0.03000000, 0.02833333, 0.00625000
3570, 0.03166667, 0.02833333, 0.00625000
3571, 0.03333333, 0.02833333, 0.00625000
3572, 0.03500000, 0.02833333, 0.00625000
3573, 0.03666667, 0.02833333, 0.00625000
3574, 0.03833333, 0.02833333, 0.00625000
3575, 0.04000000, 0.02833333, 0.00625000
3576, 0.00000000, 0.03000000, 0.00625000
3577, 0.00166667, 0.03000000, 0.00625000
3578, 0.00333333, 0.03000000, 0.00625000
3579, 0.00500000, 0.03000000, 0.00625000
3580, 0.00666667, 0.03000000, 0.00625000
3581, 0.00833333, 0.03000000, 0.00625000
3582, 0.01000000, 0.03000000, 0.00625000
3583, 0.01166667, 0.03000000, 0.00625000
3584, 0.01333333, 0.03000000, 0.00625000
3585, 0.01500000, 0.03000000, 0.00625000
3586, 0.01666667, 0.03000000, 0.00625000
3587, 0.01833333, 0.03000000, 0.00625000
3588, 0.02000000, 0.03000000, 0.00625000
3589, 0.02166667, 0.03000000, 0.00625000
3590, 0.02333333, 0.03000000, 0.00625000
3591, 0.02500000, 0.03000000, 0.00625000
3592, 0.02666667, 0.03000000, 0.00625000
3593, 0.02833333, 0.03000000, 0.00625000
3594, 0.03000000, 0.03000000, 0.00625000
3595, 0.03166667, 0.03000000, 0.00625000
3596, 0.03333333, 0.03000000, 0.00625000
3597, 0.03500000, 0.03000000, 0.00625000
3598, 0.03666667, 0.03000000, 0.00625000
3599, 0.03833333, 0.03000000, 0.00625000
3600, 0.04000000, 0.03000000, 0.00625000
3601, 0.00000000, 0.03166667, 0.00625000
3602, 0.00166667, 0.03166667, 0.00625000
3603, 0.00333333, 0.03166667, 0.00625000
3604, 0.00500000, 0.03166667, 0.00625000
3605, 0.00666667, 0.03166667, 0.00625000
3606, 0.00833333, 0.03166667, 0.00625000
3607, 0.01000000, 0.03166667, 0.00625000
3608, 0.01166667, 0.03166667, 0.00625000
3609, 0.01333333, 0.03166667, 0.00625000
3610, 0.01500000, 0.03166667, 0.00625000
3611, 0.01666667, 0.03166667, 0.00625000
3612, 0.01833333, 0.03166667, 0.00625000
3613, 0.02000000, 0.03166667, 0.00625000
3614, 0.02166667, 0.03166667, 0.00625000
3615, 0.02333333, 0.03166667, 0.00625000
3616, 0.02500000, 0.03166667, 0.00625000
3617, 0.02666667, 0.03166667, 0.00625000
3618, 0.02833333, 0.03166667, 0.00625000
3619, 0.03000000, 0.03166667, 0.00625000
3620, 0.03166667, 0.03166667, 0.00625000
3621, 0.03333333, 0.03166667, 0.00625000
3622, 0.03500000, 0.03166667, 0.00625000
3623, 0.03666667, 0.03166667, 0.00625000
3624, 0.03833333, 0.03166667, 0.00625000
3625, 0.04000000, 0.03166667, 0.00625000
3626, 0.00000000, 0.03333333, 0.00625000
3627, 0.00166667, 0.03333333, 0.00625000
3628, 0.00333333, 0.03333333, 0.00625000
3629, 0.00500000, 0.03333333, 0.00625000
3630, 0.00666667, 0.03333333, 0.00625000
3631, 0.00833333, 0.03333333, 0.00625000
3632, 0.01000000, 0.03333333, 0.00625000
3633, 0.01166667, 0.03333333, 0.00625000
3634, 0.01333333, 0.03333333, 0.00625000
3635, 0.01500000, 0.03333333, 0.00625000
3636, 0.01666667, 0.03333333, 0.00625000
3637, 0.01833333, 0.03333333, 0.00625000
3638, 0.02000000, 0.03333333, 0.00625000
3639, 0.02166667, 0.03333333, 0.00625000
3640, 0.02333333, 0.03333333, 0.00625000
3641, 0.02500000, 0.03333333, 0.00625000
3642, 0.02666667, 0.03333333, 0.00625000
3643, 0.02833333, 0.03333333, 0.00625000
3644, 0.03000000, 0.03333333, 0.00625000
3645, 0.03166667, 0.03333333, 0.00625000
3646, 0.03333333, 0.03333333, 0.00625000
3647, 0.03500000, 0.03333333, 0.00625000
3648, 0.03666667, 0.03333333, 0.00625000
3649, 0.03833333, 0.03333333, 0.00625000
3650, 0.04000000, 0.03333333, 0.00625000
3651, 0.00000000, 0.03500000, 0.00625000
3652, 0.00166667, 0.03500000, 0.00625000
3653, 0.00333333, 0.03500000, 0.00625000
3654, 0.00500000, 0.03500000, 0.00625000
3655, 0.00666667, 0.03500000, 0.00625000
3656, 0.00833333, 0.03500000, 0.00625000
3657, 0.01000000, 0.03500000, 0.00625000
3658, 0.01166667, 0.03500000, 0.00625000
3659, 0.01333333, 0.03500000, 0.00625000
3660, 0.01500000, 0.03500000, 0.00625000
3661, 0.01666667, 0.03500000, 0.00625000
3662, 0.01833333, 0.03500000, 0.00625000
3663, 0.02000000, 0.03500000, 0.00625000
3664, 0.02166667, 0.03500000, 0.00625000
3665, 0.02333333, 0.03500000, 0.00625000
3666, 0.02500000, 0.03500000, 0.00625000
3667, 0.02666667, 0.03500000, 0.00625000
3668, 0.02833333, 0.03500000, 0.00625000
3669, 0.03000000, 0.03500000, 0.00625000
3670, 0.03166667, 0.03500000, 0.00625000
3671, 0.03333333, 0.03500000, 0.00625000
3672, 0.03500000, 0.03500000, 0.00625000
3673, 0.03666667, 0.03500000, 0.00625000
3674, 0.03833333, 0.03500000, 0.00625000
3675, 0.04000000, 0.03500000, 0.00625000
3676, 0.00000000, 0.03666667, 0.00625000
3677, 0.00166667, 0.03666667, 0.00625000
3678, 0.00333333, 0.03666667, 0.00625000
3679, 0.00500000, 0.03666667, 0.00625000
3680, 0.00666667, 0.03666667, 0.00625000
3681, 0.00833333, 0.03666667, 0.00625000
3682, 0.01000000, 0.03666667, 0.00625000
3683, 0.01166667, 0.03666667, 0.00625000
3684, 0.01333333, 0.03666667, 0.00625000
3685, 0.01500000, 0.03666667, 0.00625000
3686, 0.01666667, 0.03666667, 0.00625000
3687, 0.01833333, 0.03666667, 0.00625000
3688, 0.02000000, 0.03666667, 0.00625000
3689, 0.02166667, 0.03666667, 0.00625000
3690, 0.02333333, 0.03666667, 0.00625000
3691, 0.02500000, 0.03666667, 0.00625000
3692, 0.02666667, 0.03666667, 0.00625000
3693, 0.02833333, 0.03666667, 0.00625000
3694, 0.03000000, 0.03666667, 0.00625000
3695, 0.03166667, 0.03666667, 0.00625000
3696, 0.03333333, 0.03666667, 0.00625000
3697, 0.03500000, 0.03666667, 0.00625000
3698, 0.03666667, 0.03666667, 0.00625000
3699, 0.03833333, 0.03666667, 0.00625000
3700, 0.04000000, 0.03666667, 0.00625000
3701, 0.00000000, 0.03833333, 0.00625000
3702, 0.00166667, 0.03833333, 0.00625000
3703, 0.00333333, 0.03833333, 0.00625000
3704, 0.00500000, 0.03833333, 0.00625000
3705, 0.00666667, 0.03833333, 0.00625000
3706, 0.00833333, 0.03833333, 0.00625000
3707, 0.01000000, 0.03833333, 0.00625000
3708, 0.01166667, 0.03833333, 0.00625000
3709, 0.01333333, 0.03833333, 0.00625000
3710, 0.01500000, 0.03833333, 0.00625000
3711, 0.01666667, 0.03833333, 0.00625000
3712, 0.01833333, 0.03833333, 0.00625000
3713, 0.02000000, 0.03833333, 0.00625000
3714, 0.02166667, 0.03833333, 0.00625000
3715, 0.02333333, 0.03833333, 0.00625000
3716, 0.02500000, 0.03833333, 0.00625000
3717, 0.02666667, 0.03833333, 0.00625000
3718, 0.02833333, 0.03833333, 0.00625000
3719, 0.03000000, 0.03833333, 0.00625000
3720, 0.03166667, 0.03833333, 0.00625000
3721, 0.03333333, 0.03833333, 0.00625000
3722, 0.03500000, 0.03833333, 0.00625000
3723, 0.03666667, 0.03833333, 0.00625000
3724, 0.03833333, 0.03833333, 0.00625000
3725, 0.04000000, 0.03833333, 0.00625000
3726, 0.00000000, 0.04000000, 0.00625000
3727, 0.00166667, 0.04000000, 0.00625000
3728, 0.00333333, 0.04000000, 0.00625000
3729, 0.00500000, 0.04000000, 0.00625000
3730, 0.00666667, 0.04000000, 0.00625000
3731, 0.00833333, 0.04000000, 0.00625000
3732, 0.01000000, 0.04000000, 0.00625000
3733, 0.01166667, 0.04000000, 0.00625000
3734, 0.01333333, 0.04000000, 0.00625000
3735, 0.01500000, 0.04000000, 0.00625000
3736, 0.01666667, 0.04000000, 0.00625000
3737, 0.01833333, 0.04000000, 0.00625000
3738, 0.02000000, 0.04000000, 0.00625000
3739, 0.02166667, 0.04000000, 0.00625000
3740, 0.02333333, 0.04000000, 0.00625000
3741, 0.02500000, 0.04000000, 0.00625000
3742, 0.02666667, 0.04000000, 0.00625000
3743, 0.02833333, 0.04000000, 0.00625000
3744, 0.03000000, 0.04000000, 0.00625000
3745, 0.03166667, 0.04000000, 0.00625000
3746, 0.03333333, 0.04000000, 0.00625000
3747, 0.03500000, 0.04000000, 0.00625000
3748, 0.03666667, 0.04000000, 0.00625000
3749, 0.03833333, 0.04000000, 0.00625000
3750, 0.04000000, 0.04000000, 0.00625000
3751, 0.00000000, 0.00000000, 0.00750000
3752, 0.00166667, 0.00000000, 0.00750000
3753, 0.00333333, 0.00000000, 0.00750000
3754, 0.00500000, 0.00000000, 0.00750000
3755, 0.00666667, 0.00000000, 0.00750000
3756, 0.00833333, 0.00000000, 0.00750000
3757, 0.01000000, 0.00000000, 0.00750000
3758, 0.01166667, 0.00000000, 0.00750000
3759, 0.01333333, 0.00000000, 0.00750000
3760, 0.01500000, 0.00000000, 0.00750000
3761, 0.01666667, 0.00000000, 0.00750000
3762, 0.01833333, 0.00000000, 0.00750000
3763, 0.02000000, 0.00000000, 0.00750000
3764, 0.02166667, 0.00000000, 0.00750000
3765, 0.02333333, 0.00000000, 0.00750000
3766, 0.02500000, 0.00000000, 0.00750000
3767, 0.02666667, 0.00000000, 0.00750000
3768, 0.02833333, 0.00000000, 0.00750000
3769, 0.03000000, 0.00000000, 0.00750000
3770, 0.03166667, 0.00000000, 0.00750000
3771, 0.03333333, 0.00000000, 0.00750000
3772, 0.03500000, 0.00000000, 0.00750000
3773, 0.03666667, 0.00000000, 0.00750000
3774, 0.03833333, 0.00000000, 0.00750000
3775, 0.04000000, 0.00000000, 0.00750000
3776, 0.00000000, 0.00166667, 0.00750000
3777, 0.00166667, 0.00166667, 0.00750000
3778, 0.00333333, 0.00166667, 0.00750000
3779, 0.00500000, 0.00166667, 0.00750000
3780, 0.00666667, 0.00166667, 0.00750000
3781, 0.00833333, 0.00166667, 0.00750000
3782, 0.01000000, 0.00166667, 0.00750000
3783, 0.01166667, 0.00166667, 0.00750000
3784, 0.01333333, 0.00166667, 0.00750000
3785, 0.01500000, 0.00166667, 0.00750000
3786, 0.01666667, 0.00166667, 0.00750000
3787, 0.01833333, 0.00166667, 0.00750000
3788, 0.02000000, 0.00166667, 0.00750000
3789, 0.02166667, 0.00166667, 0.00750000
3790, 0.02333333, 0.00166667, 0.00750000
3791, 0.02500000, 0.00166667, 0.00750000
3792, 0.02666667, 0.00166667, 0.00750000
3793, 0.02833333, 0.00166667, 0.00750000
3794, 0.03000000, 0.00166667, 0.00750000
3795, 0.03166667, 0.00166667, 0.00750000
3796, 0.03333333, 0.00166667, 0.00750000
3797, 0.03500000, 0.00166667, 0.00750000
3798, 0.03666667, 0.00166667, 0.00750000
3799, 0.03833333, 0.00166667, 0.00750000
3800, 0.04000000, 0.00166667, 0.00750000
3801, 0.00000000, 0.00333333, 0.00750000
3802, 0.00166667, 0.00333333, 0.00750000
3803, 0.00333333, 0.00333333, 0.00750000
3804, 0.00500000, 0.00333333, 0.00750000
3805, 0.00666667, 0.00333333, 0.00750000
3806, 0.00833333, 0.00333333, 0.00750000
3807, 0.01000000, 0.00333333, 0.00750000
3808, 0.01166667, 0.00333333, 0.00750000
3809, 0.01333333, 0.00333333, 0.00750000
3810, 0.01500000, 0.00333333, 0.00750000
3811, 0.01666667, 0.00333333, 0.00750000
3812, 0.01833333, 0.00333333, 0.00750000
3813, 0.02000000, 0.00333333, 0.00750000
3814, 0.02166667, 0.00333333, 0.00750000
3815, 0.02333333, 0.00333333, 0.00750000
3816, 0.02500000, 0.00333333, 0.00750000
3817, 0.02666667, 0.00333333, 0.00750000
3818, 0.02833333, 0.00333333, 0.00750000
3819, 0.03000000, 0.00333333, 0.00750000
3820, 0.03166667, 0.00333333, 0.00750000
3821, 0.03333333, 0.00333333, 0.00750000
3822, 0.03500000, 0.00333333, 0.00750000
3823, 0.03666667, 0.00333333, 0.00750000
3824, 0.03833333, 0.00333333, 0.00750000
3825, 0.04000000, 0.00333333, 0.00750000
3826, 0.00000000, 0.00500000, 0.00750000
3827, 0.00166667, 0.00500000, 0.00750000
3828, 0.00333333, 0.00500000, 0.00750000
3829, 0.00500000, 0.00500000, 0.00750000
3830, 0.00666667, 0.00500000, 0.00750000
3831, 0.00833333, 0.00500000, 0.00750000
3832, 0.01000000, 0.00500000, 0.00750000
3833, 0.01166667, 0.00500000, 0.00750000
3834, 0.01333333, 0.00500000, 0.00750000
3835, 0.01500000, 0.00500000, 0.00750000
3836, 0.01666667, 0.00500000, 0.00750000
3837, 0.01833333, 0.00500000, 0.00750000
3838, 0.02000000, 0.00500000, 0.00750000
3839, 0.02166667, 0.00500000, 0.00750000
3840, 0.02333333, 0.00500000, 0.00750000
3841, 0.02500000, 0.00500000, 0.00750000
3842, 0.02666667, 0.00500000, 0.00750000
3843, 0.02833333, 0.00500000, 0.00750000
3844, 0.03000000, 0.00500000, 0.00750000
3845, 0.03166667, 0.00500000, 0.00750000
3846, 0.03333333, 0.00500000, 0.00750000
3847, 0.03500000, 0.00500000, 0.00750000
3848, 0.03666667, 0.00500000, 0.00750000
3849, 0.03833333, 0.00500000, 0.00750000
3850, 0.04000000, 0.00500000, 0.00750000
3851, 0.00000000, 0.00666667, 0.00750000
3852, 0.00166667, 0.00666667, 0.00750000
3853, 0.00333333, 0.00666667, 0.00750000
3854, 0.00500000, 0.00666667, 0.00750000
3855, 0.00666667, 0.00666667, 0.00750000
3856, 0.00833333, 0.00666667, 0.00750000
3857, 0.01000000, 0.00666667, 0.00750000
3858, 0.01166667, 0.00666667, 0.00750000
3859, 0.01333333, 0.00666667, 0.00750000
3860, 0.01500000, 0.00666667, 0.00750000
3861, 0.01666667, 0.00666667, 0.00750000
3862, 0.01833333, 0.00666667, 0.00750000
3863, 0.02000000, 0.00666667, 0.00750000
3864, 0.02166667, 0.00666667, 0.00750000
3865, 0.02333333, 0.00666667, 0.00750000
3866, 0.02500000, 0.00666667, 0.00750000
3867, 0.02666667, 0.00666667, 0.00750000
3868, 0.02833333, 0.00666667, 0.00750000
3869, 0.03000000, 0.00666667, 0.00750000
3870, 0.03166667, 0.00666667, 0.00750000
3871, 0.03333333, 0.00666667, 0.00750000
3872, 0.03500000, 0.00666667, 0.00750000
3873, 0.03666667, 0.00666667, 0.00750000
3874, 0.03833333, 0.00666667, 0.00750000
3875, 0.04000000, 0.00666667, 0.00750000
3876, 0.00000000, 0.00833333, 0.00750000
3877, 0.00166667, 0.00833333, 0.00750000
3878, 0.00333333, 0.00833333, 0.00750000
3879, 0.00500000, 0.00833333, 0.00750000
3880, 0.00666667, 0.00833333, 0.00750000
3881, 0.00833333, 0.00833333, 0.00750000
3882, 0.01000000, 0.00833333, 0.00750000
3883, 0.01166667, 0.00833333, 0.00750000
3884, 0.01333333, 0.00833333, 0.00750000
3885, 0.01500000, 0.00833333, 0.00750000
3886, 0.01666667, 0.00833333, 0.00750000
3887, 0.01833333, 0.00833333, 0.00750000
3888, 0.02000000, 0.00833333, 0.00750000
3889, 0.02166667, 0.00833333, 0.00750000
3890, 0.02333333, 0.00833333, 0.00750000
3891, 0.02500000, 0.00833333, 0.00750000
3892, 0.02666667, 0.00833333, 0.00750000
3893, 0.02833333, 0.00833333, 0.00750000
3894, 0.03000000, 0.00833333, 0.00750000
3895, 0.03166667, 0.00833333, 0.00750000
3896, 0.03333333, 0.00833333, 0.00750000
3897, 0.03500000, 0.00833333, 0.00750000
3898, 0.03666667, 0.00833333, 0.00750000
3899, 0.03833333, 0.00833333, 0.00750000
3900, 0.04000000, 0.00833333, 0.00750000
3901, 0.00000000, 0.01000000, 0.00750000
3902, 0.00166667, 0.01000000, 0.00750000
3903, 0.00333333, 0.01000000, 0.00750000
3904, 0.00500000, 0.01000000, 0.00750000
3905, 0.00666667, 0.01000000, 0.00750000
3906, 0.00833333, 0.01000000, 0.00750000
3907, 0.01000000, 0.01000000, 0.00750000
3908, 0.01166667, 0.01000000, 0.00750000
3909, 0.01333333, 0.01000000, 0.00750000
3910, 0.01500000, 0.01000000, 0.00750000
3911, 0.01666667, 0.01000000, 0.00750000
3912, 0.01833333, 0.01000000, 0.00750000
3913, 0.02000000, 0.01000000, 0.00750000
3914, 0.02166667, 0.01000000, 0.00750000
3915, 0.02333333, 0.01000000, 0.00750000
3916, 0.02500000, 0.01000000, 0.00750000
3917, 0.02666667, 0.01000000, 0.00750000
3918, 0.02833333, 0.01000000, 0.00750000
3919, 0.03000000, 0.01000000, 0.00750000
3920, 0.03166667, 0.01000000, 0.00750000
3921, 0.03333333, 0.01000000, 0.00750000
3922, 0.03500000, 0.01000000, 0.00750000
3923, 0.03666667, 0.01000000, 0.00750000
3924, 0.03833333, 0.01000000, 0.00750000
3925, 0.04000000, 0.01000000, 0.00750000
3926, 0.00000000, 0.01166667, 0.00750000
3927, 0.00166667, 0.01166667, 0.00750000
3928, 0.00333333, 0.01166667, 0.00750000
3929, 0.00500000, 0.01166667, 0.00750000
3930, 0.00666667, 0.01166667, 0.00750000
3931, 0.00833333, 0.01166667, 0.00750000
3932, 0.01000000, 0.01166667, 0.00750000
3933, 0.01166667, 0.01166667, 0.00750000
3934, 0.01333333, 0.01166667, 0.00750000
3935, 0.01500000, 0.01166667, 0.00750000
3936, 0.01666667, 0.01166667, 0.00750000
3937, 0.01833333, 0.01166667, 0.00750000
3938, 0.02000000, 0.01166667, 0.00750000
3939, 0.02166667, 0.01166667, 0.00750000
3940, 0.02333333, 0.01166667, 0.00750000
3941, 0.02500000, 0.01166667, 0.00750000
3942, 0.02666667, 0.01166667, 0.00750000
3943, 0.02833333, 0.01166667, 0.00750000
3944, 0.03000000, 0.01166667, 0.00750000
3945, 0.03166667, 0.01166667, 0.00750000
3946, 0.03333333, 0.01166667, 0.00750000
3947, 0.03500000, 0.01166667, 0.00750000
3948, 0.03666667, 0.01166667, 0.00750000
3949, 0.03833333, 0.01166667, 0.00750000
3950, 0.04000000, 0.01166667, 0.00750000
3951, 0.00000000, 0.01333333, 0.00750000
3952, 0.00166667, 0.01333333, 0.00750000
3953, 0.00333333, 0.01333333, 0.00750000
3954, 0.00500000, 0.01333333, 0.00750000
3955, 0.00666667, 0.01333333, 0.00750000
3956, 0.00833333, 0.01333333, 0.00750000
3957, 0.01000000, 0.01333333, 0.00750000
3958, 0.01166667, 0.01333333, 0.00750000
3959, 0.01333333, 0.01333333, 0.00750000
3960, 0.01500000, 0.01333333, 0.00750000
3961, 0.01666667, 0.01333333, 0.00750000
3962, 0.01833333, 0.01333333, 0.00750000
3963, 0.02000000, 0.01333333, 0.00750000
3964, 0.02166667, 0.01333333, 0.00750000
3965, 0.02333333, 0.01333333, 0.00750000
3966, 0.02500000, 0.01333333, 0.00750000
3967, 0.02666667, 0.01333333, 0.00750000
3968, 0.02833333, 0.01333333, 0.00750000
3969, 0.03000000, 0.01333333, 0.00750000
3970, 0.03166667, 0.01333333, 0.00750000
3971, 0.03333333, 0.01333333, 0.00750000
3972, 0.03500000, 0.01333333, 0.00750000
3973, 0.03666667, 0.01333333, 0.00750000
3974, 0.03833333, 0.01333333, 0.00750000
3975, 0.04000000, 0.01333333, 0.00750000
3976, 0.00000000, 0.01500000, 0.00750000
3977, 0.00166667, 0.01500000, 0.00750000
3978, 0.00333333, 0.01500000, 0.00750000
3979, 0.00500000, 0.01500000, 0.00750000
3980, 0.00666667, 0.01500000, 0.00750000
3981, 0.00833333, 0.01500000, 0.00750000
3982, 0.01000000, 0.01500000, 0.00750000
3983, 0.01166667, 0.01500000, 0.00750000
3984, 0.01333333, 0.01500000, 0.00750000
3985, 0.01500000, 0.01500000, 0.00750000
3986, 0.01666667, 0.01500000, 0.00750000
3987, 0.01833333, 0.01500000, 0.00750000
3988, 0.02000000, 0.01500000, 0.00750000
3989, 0.02166667, 0.01500000, 0.00750000
3990, 0.02333333, 0.01500000, 0.00750000
3991, 0.02500000, 0.01500000, 0.00750000
3992, 0.02666667, 0.01500000, 0.00750000
3993, 0.02833333, 0.01500000, 0.00750000
3994, 0.03000000, 0.01500000, 0.00750000
3995, 0.03166667, 0.01500000, 0.00750000
3996, 0.03333333, 0.01500000, 0.00750000
3997, 0.03500000, 0.01500000, 0.00750000
3998, 0.03666667, 0.01500000, 0.00750000
3999, 0.03833333, 0.01500000, 0.00750000
4000, 0.04000000, 0.01500000, 0.00750000
4001, 0.00000000, 0.01666667, 0.00750000
4002, 0.00166667, 0.01666667, 0.00750000
4003, 0.00333333, 0.01666667, 0.00750000
4004, 0.00500000, 0.01666667, 0.00750000
4005, 0.00666667, 0.01666667, 0.00750000
4006, 0.00833333, 0.01666667, 0.00750000
4007, 0.01000000, 0.01666667, 0.00750000
4008, 0.01166667, 0.01666667, 0.00750000
4009, 0.01333333, 0.01666667, 0.00750000
4010, 0.01500000, 0.01666667, 0.00750000
4011, 0.01666667, 0.01666667, 0.00750000
4012, 0.01833333, 0.01666667, 0.00750000
4013, 0.02000000, 0.01666667, 0.00750000
4014, 0.02166667, 0.01666667, 0.00750000
4015, 0.02333333, 0.01666667, 0.00750000
4016, 0.02500000, 0.01666667, 0.00750000
4017, 0.02666667, 0.01666667, 0.00750000
4018, 0.02833333, 0.01666667, 0.00750000
4019, 0.03000000, 0.01666667, 0.00750000
4020, 0.03166667, 0.01666667, 0.00750000
4021, 0.03333333, 0.01666667, 0.00750000
4022, 0.03500000, 0.01666667, 0.00750000
4023, 0.03666667, 0.01666667, 0.00750000
4024, 0.03833333, 0.01666667, 0.00750000
4025, 0.04000000, 0.01666667, 0.00750000
4026, 0.00000000, 0.01833333, 0.00750000
4027, 0.00166667, 0.01833333, 0.00750000
4028, 0.00333333, 0.01833333, 0.00750000
4029, 0.00500000, 0.01833333, 0.00750000
4030, 0.00666667, 0.01833333, 0.00750000
4031, 0.00833333, 0.01833333, 0.00750000
4032, 0.01000000, 0.01833333, 0.00750000
4033, 0.01166667, 0.01833333, 0.00750000
4034, 0.01333333, 0.01833333, 0.00750000
4035, 0.01500000, 0.01833333, 0.00750000
4036, 0.01666667, 0.01833333, 0.00750000
4037, 0.01833333, 0.01833333, 0.00750000
4038, 0.02000000, 0.01833333, 0.00750000
4039, 0.02166667, 0.01833333, 0.00750000
4040, 0.02333333, 0.01833333, 0.00750000
4041, 0.02500000, 0.01833333, 0.00750000
4042, 0.02666667, 0.01833333, 0.00750000
4043, 0.02833333, 0.01833333, 0.00750000
4044, 0.03000000, 0.01833333, 0.00750000
4045, 0.03166667, 0.01833333, 0.00750000
4046, 0.03333333, 0.01833333, 0.00750000
4047, 0.03500000, 0.01833333, 0.00750000
4048, 0.03666667, 0.01833333, 0.00750000
4049, 0.03833333, 0.01833333, 0.00750000
4050, 0.04000000, 0.01833333, 0.00750000
4051, 0.00000000, 0.02000000, 0.00750000
4052, 0.00166667, 0.02000000, 0.00750000
4053, 0.00333333, 0.02000000, 0.00750000
4054, 0.00500000, 0.02000000, 0.00750000
4055, 0.00666667, 0.02000000, 0.00750000
4056, 0.00833333, 0.02000000, 0.00750000
4057, 0.01000000, 0.02000000, 0.00750000
4058, 0.01166667, 0.02000000, 0.00750000
4059, 0.01333333, 0.02000000, 0.00750000
4060, 0.01500000, 0.02000000, 0.00750000
4061, 0.01666667, 0.02000000, 0.00750000
4062, 0.01833333, 0.02000000, 0.00750000
4063, 0.02000000, 0.02000000, 0.00750000
4064, 0.02166667, 0.02000000, 0.00750000
4065, 0.02333333, 0.02000000, 0.00750000
4066, 0.02500000, 0.02000000, 0.00750000
4067, 0.02666667, 0.02000000, 0.00750000
4068, 0.02833333, 0.02000000, 0.00750000
4069, 0.03000000, 0.02000000, 0.00750000
4070, 0.03166667, 0.02000000, 0.00750000
4071, 0.03333333, 0.02000000, 0.00750000
4072, 0.03500000, 0.02000000, 0.00750000
4073, 0.03666667, 0.02000000, 0.00750000
4074, 0.03833333, 0.02000000, 0.00750000
4075, 0.04000000, 0.02000000, 0.00750000
4076, 0.00000000, 0.02166667, 0.00750000
4077, 0.00166667, 0.02166667, 0.00750000
4078, 0.00333333, 0.02166667, 0.00750000
4079, 0.00500000, 0.02166667, 0.00750000
4080, 0.00666667, 0.02166667, 0.00750000
4081, 0.00833333, 0.02166667, 0.00750000
4082, 0.01000000, 0.02166667, 0.00750000
4083, 0.01166667, 0.02166667, 0.00750000
4084, 0.01333333, 0.02166667, 0.00750000
4085, 0.01500000, 0.02166667, 0.00750000
4086, 0.01666667, 0.02166667, 0.00750000
4087, 0.01833333, 0.02166667, 0.00750000
4088, 0.02000000, 0.02166667, 0.00750000
4089, 0.02166667, 0.02166667, 0.00750000
4090, 0.02333333, 0.02166667, 0.00750000
4091, 0.02500000, 0.02166667, 0.00750000
4092, 0.02666667, 0.02166667, 0.00750000
4093, 0.02833333, 0.02166667, 0.00750000
4094, 0.03000000, 0.02166667, 0.00750000
4095, 0.03166667, 0.02166667, 0.00750000
4096, 0.03333333, 0.02166667, 0.00750000
4097, 0.03500000, 0.02166667, 0.00750000
4098, 0.03666667, 0.02166667, 0.00750000
4099, 0.03833333, 0.02166667, 0.00750000
4100, 0.04000000, 0.02166667, 0.00750000
4101, 0.00000000, 0.02333333, 0.00750000
4102, 0.00166667, 0.02333333, 0.00750000
4103, 0.00333333, 0.02333333, 0.00750000
4104, 0.00500000, 0.02333333, 0.00750000
4105, 0.00666667, 0.02333333, 0.00750000
4106, 0.00833333, 0.02333333, 0.00750000
4107, 0.01000000, 0.02333333, 0.00750000
4108, 0.01166667, 0.02333333, 0.00750000
4109, 0.01333333, 0.02333333, 0.00750000
4110, 0.01500000, 0.02333333, 0.00750000
4111, 0.01666667, 0.02333333, 0.00750000
4112, 0.01833333, 0.02333333, 0.00750000
4113, 0.02000000, 0.02333333, 0.00750000
4114, 0.02166667, 0.02333333, 0.00750000
4115, 0.02333333, 0.02333333, 0.00750000
4116, 0.02500000, 0.02333333, 0.00750000
4117, 0.02666667, 0.02333333, 0.00750000
4118, 0.02833333, 0.02333333, 0.00750000
4119, 0.03000000, 0.02333333, 0.00750000
4120, 0.03166667, 0.02333333, 0.00750000
4121, 0.03333333, 0.02333333, 0.00750000
4122, 0.03500000, 0.02333333, 0.00750000
4123, 0.03666667, 0.02333333, 0.00750000
4124, 0.03833333, 0.02333333, 0.00750000
4125, 0.04000000, 0.02333333, 0.00750000
4126, 0.00000000, 0.02500000, 0.00750000
4127, 0.00166667, 0.02500000, 0.00750000
4128, 0.00333333, 0.02500000, 0.00750000
4129, 0.00500000, 0.02500000, 0.00750000
4130, 0.00666667, 0.02500000, 0.00750000
4131, 0.00833333, 0.02500000, 0.00750000
4132, 0.01000000, 0.02500000, 0.00750000
4133, 0.01166667, 0.02500000, 0.00750000
4134, 0.01333333, 0.02500000, 0.00750000
4135, 0.01500000, 0.02500000, 0.00750000
4136, 0.01666667, 0.02500000, 0.00750000
4137, 0.01833333, 0.02500000, 0.00750000
4138, 0.02000000, 0.02500000, 0.00750000
4139, 0.02166667, 0.02500000, 0.00750000
4140, 0.02333333, 0.02500000, 0.00750000
4141, 0.02500000, 0.02500000, 0.00750000
4142, 0.02666667, 0.02500000, 0.00750000
4143, 0.02833333, 0.02500000, 0.00750000
4144, 0.03000000, 0.02500000, 0.00750000
4145, 0.03166667, 0.02500000, 0.00750000
4146, 0.03333333, 0.02500000, 0.00750000
4147, 0.03500000, 0.02500000, 0.00750000
4148, 0.03666667, 0.02500000, 0.00750000
4149, 0.03833333, 0.02500000, 0.00750000
4150, 0.04000000, 0.02500000, 0.00750000
4151, 0.00000000, 0.02666667, 0.00750000
4152, 0.00166667, 0.02666667, 0.00750000
4153, 0.00333333, 0.02666667, 0.00750000
4154, 0.00500000, 0.02666667, 0.00750000
4155, 0.00666667, 0.02666667, 0.00750000
4156, 0.00833333, 0.02666667, 0.00750000
4157, 0.01000000, 0.02666667, 0.00750000
4158, 0.01166667, 0.02666667, 0.00750000
4159, 0.01333333, 0.02666667, 0.00750000
4160, 0.01500000, 0.02666667, 0.00750000
4161, 0.01666667, 0.02666667, 0.00750000
4162, 0.01833333, 0.02666667, 0.00750000
4163, 0.02000000, 0.02666667, 0.00750000
4164, 0.02166667, 0.02666667, 0.00750000
4165, 0.02333333, 0.02666667, 0.00750000
4166, 0.02500000, 0.02666667, 0.00750000
4167, 0.02666667, 0.02666667, 0.00750000
4168, 0.02833333, 0.02666667, 0.00750000
4169, 0.03000000, 0.02666667, 0.00750000
4170, 0.03166667, 0.02666667, 0.00750000
4171, 0.03333333, 0.02666667, 0.00750000
4172, 0.03500000, 0.02666667, 0.00750000
4173, 0.03666667, 0.02666667, 0.00750000
4174, 0.03833333, 0.02666667, 0.00750000
4175, 0.04000000, 0.02666667, 0.00750000
4176, 0.00000000, 0.02833333, 0.00750000
4177, 0.00166667, 0.02833333, 0.00750000
4178, 0.00333333, 0.02833333, 0.00750000
4179, 0.00500000, 0.02833333, 0.00750000
4180, 0.00666667, 0.02833333, 0.00750000
4181, 0.00833333, 0.02833333, 0.00750000
4182, 0.01000000, 0.02833333, 0.00750000
4183, 0.01166667, 0.02833333, 0.00750000
4184, 0.01333333, 0.02833333, 0.00750000
4185, 0.01500000, 0.02833333, 0.00750000
4186, 0.01666667, 0.02833333, 0.00750000
4187, 0.01833333, 0.02833333, 0.00750000
4188, 0.02000000, 0.02833333, 0.00750000
4189, 0.02166667, 0.02833333, 0.00750000
4190, 0.02333333, 0.02833333, 0.00750000
4191, 0.02500000, 0.02833333, 0.00750000
4192, 0.02666667, 0.02833333, 0.00750000
4193, 0.02833333, 0.02833333, 0.00750000
4194, 0.03000000, 0.02833333, 0.00750000
4195, 0.03166667, 0.02833333, 0.00750000
4196, 0.03333333, 0.02833333, 0.00750000
4197, 0.03500000, 0.02833333, 0.00750000
4198, 0.03666667, 0.02833333, 0.00750000
4199, 0.03833333, 0.02833333, 0.00750000
4200, 0.04000000, 0.02833333, 0.00750000
4201, 0.00000000, 0.03000000, 0.00750000
4202, 0.00166667, 0.03000000, 0.00750000
4203, 0.00333333, 0.03000000, 0.00750000
4204, 0.00500000, 0.03000000, 0.00750000
4205, 0.00666667, 0.03000000, 0.00750000
4206, 0.00833333, 0.03000000, 0.00750000
4207, 0.01000000, 0.03000000, 0.00750000
4208, 0.01166667, 0.03000000, 0.00750000
4209, 0.01333333, 0.03000000, 0.00750000
4210, 0.01500000, 0.03000000, 0.00750000
4211, 0.01666667, 0.03000000, 0.00750000
4212, 0.01833333, 0.03000000, 0.00750000
4213, 0.02000000, 0.03000000, 0.00750000
4214, 0.02166667, 0.03000000, 0.00750000
4215, 0.02333333, 0.03000000, 0.00750000
4216, 0.02500000, 0.03000000, 0.00750000
4217, 0.02666667, 0.03000000, 0.00750000
4218, 0.02833333, 0.03000000, 0.00750000
4219, 0.03000000, 0.03000000, 0.00750000
4220, 0.03166667, 0.03000000, 0.00750000
4221, 0.03333333, 0.03000000, 0.00750000
4222, 0.03500000, 0.03000000, 0.00750000
4223, 0.03666667, 0.03000000, 0.00750000
4224, 0.03833333, 0.03000000, 0.00750000
4225, 0.04000000, 0.03000000, 0.00750000
4226, 0.00000000, 0.03166667, 0.00750000
4227, 0.00166667, 0.03166667, 0.00750000
4228, 0.00333333, 0.03166667, 0.00750000
4229, 0.00500000, 0.03166667, 0.00750000
4230, 0.00666667, 0.03166667, 0.00750000
4231, 0.00833333, 0.03166667, 0.00750000
4232, 0.01000000, 0.03166667, 0.00750000
4233, 0.01166667, 0.03166667, 0.00750000
4234, 0.01333333, 0.03166667, 0.00750000
4235, 0.01500000, 0.03166667, 0.00750000
4236, 0.01666667, 0.03166667, 0.00750000
4237, 0.01833333, 0.03166667, 0.00750000
4238, 0.02000000, 0.03166667, 0.00750000
4239, 0.02166667, 0.03166667, 0.00750000
4240, 0.02333333, 0.03166667, 0.00750000
4241, 0.02500000, 0.03166667, 0.00750000
4242, 0.02666667, 0.03166667, 0.00750000
4243, 0.02833333, 0.03166667, 0.00750000
4244, 0.03000000, 0.03166667, 0.00750000
4245, 0.03166667, 0.03166667, 0.00750000
4246, 0.03333333, 0.03166667, 0.00750000
4247, 0.03500000, 0.03166667, 0.00750000
4248, 0.03666667, 0.03166667, 0.00750000
4249, 0.03833333, 0.03166667, 0.00750000
4250, 0.04000000, 0.03166667, 0.00750000
4251, 0.00000000, 0.03333333, 0.00750000
4252, 0.00166667, 0.03333333, 0.00750000
4253, 0.00333333, 0.03333333, 0.00750000
4254, 0.00500000, 0.03333333, 0.00750000
4255, 0.00666667, 0.03333333, 0.00750000
4256, 0.00833333, 0.03333333, 0.00750000
4257, 0.01000000, 0.03333333, 0.00750000
4258, 0.01166667, 0.03333333, 0.00750000
4259, 0.01333333, 0.03333333, 0.00750000
4260, 0.01500000, 0.03333333, 0.00750000
4261, 0.01666667, 0.03333333, 0.00750000
4262, 0.01833333, 0.03333333, 0.00750000
4263, 0.02000000, 0.03333333, 0.00750000
4264, 0.02166667, 0.03333333, 0.00750000
4265, 0.02333333, 0.03333333, 0.00750000
4266, 0.02500000, 0.03333333, 0.00750000
4267, 0.02666667, 0.03333333, 0.00750000
4268, 0.02833333, 0.03333333, 0.00750000
4269, 0.03000000, 0.03333333, 0.00750000
4270, 0.03166667, 0.03333333, 0.00750000
4271, 0.03333333, 0.03333333, 0.00750000
4272, 0.03500000, 0.03333333, 0.00750000
4273, 0.03666667, 0.03333333, 0.00750000
4274, 0.03833333, 0.03333333, 0.00750000
4275, 0.04000000, 0.03333333, 0.00750000
4276, 0.00000000, 0.03500000, 0.00750000
4277, 0.00166667, 0.03500000, 0.00750000
4278, 0.00333333, 0.03500000, 0.00750000
4279, 0.00500000, 0.03500000, 0.00750000
4280, 0.00666667, 0.03500000, 0.00750000
4281, 0.00833333, 0.03500000, 0.00750000
4282, 0.01000000, 0.03500000, 0.00750000
4283, 0.01166667, 0.03500000, 0.00750000
4284, 0.01333333, 0.03500000, 0.00750000
4285, 0.01500000, 0.03500000, 0.00750000
4286, 0.01666667, 0.03500000, 0.00750000
4287, 0.01833333, 0.03500000, 0.00750000
4288, 0.02000000, 0.03500000, 0.00750000
4289, 0.02166667, 0.03500000, 0.00750000
4290, 0.02333333, 0.03500000, 0.00750000
4291, 0.02500000, 0.03500000, 0.00750000
4292, 0.02666667, 0.03500000, 0.00750000
4293, 0.02833333, 0.03500000, 0.00750000
4294, 0.03000000, 0.03500000, 0.00750000
4295, 0.03166667, 0.03500000, 0.00750000
4296, 0.03333333, 0.03500000, 0.00750000
4297, 0.03500000, 0.03500000, 0.00750000
4298, 0.03666667, 0.03500000, 0.00750000
4299, 0.03833333, 0.03500000, 0.00750000
4300, 0.04000000, 0.03500000, 0.00750000
4301, 0.00000000, 0.03666667, 0.00750000
4302, 0.00166667, 0.03666667, 0.00750000
4303, 0.00333333, 0.03666667, 0.00750000
4304, 0.00500000, 0.03666667, 0.00750000
4305, 0.00666667, 0.03666667, 0.00750000
4306, 0.00833333, 0.03666667, 0.00750000
4307, 0.01000000, 0.03666667, 0.00750000
4308, 0.01166667, 0.03666667, 0.00750000
4309, 0.01333333, 0.03666667, 0.00750000
4310, 0.01500000, 0.03666667, 0.00750000
4311, 0.01666667, 0.03666667, 0.00750000
4312, 0.01833333, 0.03666667, 0.00750000
4313, 0.02000000, 0.03666667, 0.00750000
4314, 0.02166667, 0.03666667, 0.00750000
4315, 0.02333333, 0.03666667, 0.00750000
4316, 0.02500000, 0.03666667, 0.00750000
4317, 0.02666667, 0.03666667, 0.00750000
4318, 0.02833333, 0.03666667, 0.00750000
4319, 0.03000000, 0.03666667, 0.00750000
4320, 0.03166667, 0.03666667, 0.00750000
4321, 0.03333333, 0.03666667, 0.00750000
4322, 0.03500000, 0.03666667, 0.00750000
4323, 0.03666667, 0.03666667, 0.00750000
4324, 0.03833333, 0.03666667, 0.00750000
4325, 0.04000000, 0.03666667, 0.00750000
4326, 0.00000000, 0.03833333, 0.00750000
4327, 0.00166667, 0.03833333, 0.00750000
4328, 0.00333333, 0.03833333, 0.00750000
4329, 0.00500000, 0.03833333, 0.00750000
4330, 0.00666667, 0.03833333, 0.00750000
4331, 0.00833333, 0.03833333, 0.00750000
4332, 0.01000000, 0.03833333, 0.00750000
4333, 0.01166667, 0.03833333, 0.00750000
4334, 0.01333333, 0.03833333, 0.00750000
4335, 0.01500000, 0.03833333, 0.00750000
4336, 0.01666667, 0.03833333, 0.00750000
4337, 0.01833333, 0.03833333, 0.00750000
4338, 0.02000000, 0.03833333, 0.00750000
4339, 0.02166667, 0.03833333, 0.00750000
4340, 0.02333333, 0.03833333, 0.00750000
4341, 0.02500000, 0.03833333, 0.00750000
4342, 0.02666667, 0.03833333, 0.00750000
4343, 0.02833333, 0.03833333, 0.00750000
4344, 0.03000000, 0.03833333, 0.00750000
4345, 0.03166667, 0.03833333, 0.00750000
4346, 0.03333333, 0.03833333, 0.00750000
4347, 0.03500000, 0.03833333, 0.00750000
4348, 0.03666667, 0.03833333, 0.00750000
4349, 0.03833333, 0.03833333, 0.00750000
4350, 0.04000000, 0.03833333, 0.00750000
4351, 0.00000000, 0.04000000, 0.00750000
4352, 0.00166667, 0.04000000, 0.00750000
4353, 0.00333333, 0.04000000, 0.00750000
4354, 0.00500000, 0.04000000, 0.00750000
4355, 0.00666667, 0.04000000, 0.00750000
4356, 0.00833333, 0.04000000, 0.00750000
4357, 0.01000000, 0.04000000, 0.00750000
4358, 0.01166667, 0.04000000, 0.00750000
4359, 0.01333333, 0.04000000, 0.00750000
4360, 0.01500000, 0.04000000, 0.00750000
4361, 0.01666667, 0.04000000, 0.00750000
4362, 0.01833333, 0.04000000, 0.00750000
4363, 0.02000000, 0.04000000, 0.00750000
4364, 0.02166667, 0.04000000, 0.00750000
4365, 0.02333333, 0.04000000, 0.00750000
4366, 0.02500000, 0.04000000, 0.00750000
4367, 0.02666667, 0.04000000, 0.00750000
4368, 0.02833333, 0.04000000, 0.00750000
4369, 0.03000000, 0.04000000, 0.00750000
4370, 0.03166667, 0.04000000, 0.00750000
4371, 0.03333333, 0.04000000, 0.00750000
4372, 0.03500000, 0.04000000, 0.00750000
4373, 0.03666667, 0.04000000, 0.00750000
4374, 0.03833333, 0.04000000, 0.00750000
4375, 0.04000000, 0.04000000, 0.00750000
4376, 0.00000000, 0.00000000, 0.00875000
4377, 0.00166667, 0.00000000, 0.00875000
4378, 0.00333333, 0.00000000, 0.00875000
4379, 0.00500000, 0.00000000, 0.00875000
4380, 0.00666667, 0.00000000, 0.00875000
4381, 0.00833333, 0.00000000, 0.00875000
4382, 0.01000000, 0.00000000, 0.00875000
4383, 0.01166667, 0.00000000, 0.00875000
4384, 0.01333333, 0.00000000, 0.00875000
4385, 0.01500000, 0.00000000, 0.00875000
4386, 0.01666667, 0.00000000, 0.00875000
4387, 0.01833333, 0.00000000, 0.00875000
4388, 0.02000000, 0.00000000, 0.00875000
4389, 0.02166667, 0.00000000, 0.00875000
4390, 0.02333333, 0.00000000, 0.00875000
4391, 0.02500000, 0.00000000, 0.00875000
4392, 0.02666667, 0.00000000, 0.00875000
4393, 0.02833333, 0.00000000, 0.00875000
4394, 0.03000000, 0.00000000, 0.00875000
4395, 0.03166667, 0.00000000, 0.00875000
4396, 0.03333333, 0.00000000, 0.00875000
4397, 0.03500000, 0.00000000, 0.00875000
4398, 0.03666667, 0.00000000, 0.00875000
4399, 0.03833333, 0.00000000, 0.00875000
4400, 0.04000000, 0.00000000, 0.00875000
4401, 0.00000000, 0.00166667, 0.00875000
4402, 0.00166667, 0.00166667, 0.00875000
4403, 0.00333333, 0.00166667, 0.00875000
4404, 0.00500000, 0.00166667, 0.00875000
4405, 0.00666667, 0.00166667, 0.00875000
4406, 0.00833333, 0.00166667, 0.00875000
4407, 0.01000000, 0.00166667, 0.00875000
4408, 0.01166667, 0.00166667, 0.00875000
4409, 0.01333333, 0.00166667, 0.00875000
4410, 0.01500000, 0.00166667, 0.00875000
4411, 0.01666667, 0.00166667, 0.00875000
4412, 0.01833333, 0.00166667, 0.00875000
4413, 0.02000000, 0.00166667, 0.00875000
4414, 0.02166667, 0.00166667, 0.00875000
4415, 0.02333333, 0.00166667, 0.00875000
4416, 0.02500000, 0.00166667, 0.00875000
4417, 0.02666667, 0.00166667, 0.00875000
4418, 0.02833333, 0.00166667, 0.00875000
4419, 0.03000000, 0.00166667, 0.00875000
4420, 0.03166667, 0.00166667, 0.00875000
4421, 0.03333333, 0.00166667, 0.00875000
4422, 0.03500000, 0.00166667, 0.00875000
4423, 0.03666667, 0.00166667, 0.00875000
4424, 0.03833333, 0.00166667, 0.00875000
4425, 0.04000000, 0.00166667, 0.00875000
4426, 0.00000000, 0.00333333, 0.00875000
4427, 0.00166667, 0.00333333, 0.00875000
4428, 0.00333333, 0.00333333, 0.00875000
4429, 0.00500000, 0.00333333, 0.00875000
4430, 0.00666667, 0.00333333, 0.00875000
4431, 0.00833333, 0.00333333, 0.00875000
4432, 0.01000000, 0.00333333, 0.00875000
4433, 0.01166667, 0.00333333, 0.00875000
4434, 0.01333333, 0.00333333, 0.00875000
4435, 0.01500000, 0.00333333, 0.00875000
4436, 0.01666667, 0.00333333, 0.00875000
4437, 0.01833333, 0.00333333, 0.00875000
4438, 0.02000000, 0.00333333, 0.00875000
4439, 0.02166667, 0.00333333, 0.00875000
4440, 0.02333333, 0.00333333, 0.00875000
4441, 0.02500000, 0.00333333, 0.00875000
4442, 0.02666667, 0.00333333, 0.00875000
4443, 0.02833333, 0.00333333, 0.00875000
4444, 0.03000000, 0.00333333, 0.00875000
4445, 0.03166667, 0.00333333, 0.00875000
4446, 0.03333333, 0.00333333, 0.00875000
4447, 0.03500000, 0.00333333, 0.00875000
4448, 0.03666667, 0.00333333, 0.00875000
4449, 0.03833333, 0.00333333, 0.00875000
4450, 0.04000000, 0.00333333, 0.00875000
4451, 0.00000000, 0.00500000, 0.00875000
4452, 0.00166667, 0.00500000, 0.00875000
4453, 0.00333333, 0.00500000, 0.00875000
4454, 0.00500000, 0.00500000, 0.00875000
4455, 0.00666667, 0.00500000, 0.00875000
4456, 0.00833333, 0.00500000, 0.00875000
4457, 0.01000000, 0.00500000, 0.00875000
4458, 0.01166667, 0.00500000, 0.00875000
4459, 0.01333333, 0.00500000, 0.00875000
4460, 0.01500000, 0.00500000, 0.00875000
4461, 0.01666667, 0.00500000, 0.00875000
4462, 0.01833333, 0.00500000, 0.00875000
4463, 0.02000000, 0.00500000, 0.00875000
4464, 0.02166667, 0.00500000, 0.00875000
4465, 0.02333333, 0.00500000, 0.00875000
4466, 0.02500000, 0.00500000, 0.00875000
4467, 0.02666667, 0.00500000, 0.00875000
4468, 0.02833333, 0.00500000, 0.00875000
4469, 0.03000000, 0.00500000, 0.00875000
4470, 0.03166667, 0.00500000, 0.00875000
4471, 0.03333333, 0.00500000, 0.00875000
4472, 0.03500000, 0.00500000, 0.00875000
4473, 0.03666667, 0.00500000, 0.00875000
4474, 0.03833333, 0.00500000, 0.00875000
4475, 0.04000000, 0.00500000, 0.00875000
4476, 0.00000000, 0.00666667, 0.00875000
4477, 0.00166667, 0.00666667, 0.00875000
4478, 0.00333333, 0.00666667, 0.00875000
4479, 0.00500000, 0.00666667, 0.00875000
4480, 0.00666667, 0.00666667, 0.00875000
4481, 0.00833333, 0.00666667, 0.00875000
4482, 0.01000000, 0.00666667, 0.00875000
4483, 0.01166667, 0.00666667, 0.00875000
4484, 0.01333333, 0.00666667, 0.00875000
4485, 0.01500000, 0.00666667, 0.00875000
4486, 0.01666667, 0.00666667, 0.00875000
4487, 0.01833333, 0.00666667, 0.00875000
4488, 0.02000000, 0.00666667, 0.00875000
4489, 0.02166667, 0.00666667, 0.00875000
4490, 0.02333333, 0.00666667, 0.00875000
4491, 0.02500000, 0.00666667, 0.00875000
4492, 0.02666667, 0.00666667, 0.00875000
4493, 0.02833333, 0.00666667, 0.00875000
4494, 0.03000000, 0.00666667, 0.00875000
4495, 0.03166667, 0.00666667, 0.00875000
4496, 0.03333333, 0.00666667, 0.00875000
4497, 0.03500000, 0.00666667, 0.00875000
4498, 0.03666667, 0.00666667, 0.00875000
4499, 0.03833333, 0.00666667, 0.00875000
4500, 0.04000000, 0.00666667, 0.00875000
4501, 0.00000000, 0.00833333, 0.00875000
4502, 0.00166667, 0.00833333, 0.00875000
4503, 0.00333333, 0.00833333, 0.00875000
4504, 0.00500000, 0.00833333, 0.00875000
4505, 0.00666667, 0.00833333, 0.00875000
4506, 0.00833333, 0.00833333, 0.00875000
4507, 0.01000000, 0.00833333, 0.00875000
4508, 0.01166667, 0.00833333, 0.00875000
4509, 0.01333333, 0.00833333, 0.00875000
4510, 0.01500000, 0.00833333, 0.00875000
4511, 0.01666667, 0.00833333, 0.00875000
4512, 0.01833333, 0.00833333, 0.00875000
4513, 0.02000000, 0.00833333, 0.00875000
4514, 0.02166667, 0.00833333, 0.00875000
4515, 0.02333333, 0.00833333, 0.00875000
4516, 0.02500000, 0.00833333, 0.00875000
4517, 0.02666667, 0.00833333, 0.00875000
4518, 0.02833333, 0.00833333, 0.00875000
4519, 0.03000000, 0.00833333, 0.00875000
4520, 0.03166667, 0.00833333, 0.00875000
4521, 0.03333333, 0.00833333, 0.00875000
4522, 0.03500000, 0.00833333, 0.00875000
4523, 0.03666667, 0.00833333, 0.00875000
4524, 0.03833333, 0.00833333, 0.00875000
4525, 0.04000000, 0.00833333, 0.00875000
4526, 0.00000000, 0.01000000, 0.00875000
4527, 0.00166667, 0.01000000, 0.00875000
4528, 0.00333333, 0.01000000, 0.00875000
4529, 0.00500000, 0.01000000, 0.00875000
4530, 0.00666667, 0.01000000, 0.00875000
4531, 0.00833333, 0.01000000, 0.00875000
4532, 0.01000000, 0.01000000, 0.00875000
4533, 0.01166667, 0.01000000, 0.00875000
4534, 0.01333333, 0.01000000, 0.00875000
4535, 0.01500000, 0.01000000, 0.00875000
4536, 0.01666667, 0.01000000, 0.00875000
4537, 0.01833333, 0.01000000, 0.00875000
4538, 0.02000000, 0.01000000, 0.00875000
4539, 0.02166667, 0.01000000, 0.00875000
4540, 0.02333333, 0.01000000, 0.00875000
4541, 0.02500000, 0.01000000, 0.00875000
4542, 0.02666667, 0.01000000, 0.00875000
4543, 0.02833333, 0.01000000, 0.00875000
4544, 0.03000000, 0.01000000, 0.00875000
4545, 0.03166667, 0.01000000, 0.00875000
4546, 0.03333333, 0.01000000, 0.00875000
4547, 0.03500000, 0.01000000, 0.00875000
4548, 0.03666667, 0.01000000, 0.00875000
4549, 0.03833333, 0.01000000, 0.00875000
4550, 0.04000000, 0.01000000, 0.00875000
4551, 0.00000000, 0.01166667, 0.00875000
4552, 0.00166667, 0.01166667, 0.00875000
4553, 0.00333333, 0.01166667, 0.00875000
4554, 0.00500000, 0.01166667, 0.00875000
4555, 0.00666667, 0.01166667, 0.00875000
4556, 0.00833333, 0.01166667, 0.00875000
4557, 0.01000000, 0.01166667, 0.00875000
4558, 0.01166667, 0.01166667, 0.00875000
4559, 0.01333333, 0.01166667, 0.00875000
4560, 0.01500000, 0.01166667, 0.00875000
4561, 0.01666667, 0.01166667, 0.00875000
4562, 0.01833333, 0.01166667, 0.00875000
4563, 0.02000000, 0.01166667, 0.00875000
4564, 0.02166667, 0.01166667, 0.00875000
4565, 0.02333333, 0.01166667, 0.00875000
4566, 0.02500000, 0.01166667, 0.00875000
4567, 0.02666667, 0.01166667, 0.00875000
4568, 0.02833333, 0.01166667, 0.00875000
4569, 0.03000000, 0.01166667, 0.00875000
4570, 0.03166667, 0.01166667, 0.00875000
4571, 0.03333333, 0.01166667, 0.00875000
4572, 0.03500000, 0.01166667, 0.00875000
4573, 0.03666667, 0.01166667, 0.00875000
4574, 0.03833333, 0.01166667, 0.00875000
4575, 0.04000000, 0.01166667, 0.00875000
4576, 0.00000000, 0.01333333, 0.00875000
4577, 0.00166667, 0.01333333, 0.00875000
4578, 0.00333333, 0.01333333, 0.00875000
4579, 0.00500000, 0.01333333, 0.00875000
4580, 0.00666667, 0.01333333, 0.00875000
4581, 0.00833333, 0.01333333, 0.00875000
4582, 0.01000000, 0.01333333, 0.00875000
4583, 0.01166667, 0.01333333, 0.00875000
4584, 0.01333333, 0.01333333, 0.00875000
4585, 0.01500000, 0.01333333, 0.00875000
4586, 0.01666667, 0.01333333, 0.00875000
4587, 0.01833333, 0.01333333, 0.00875000
4588, 0.02000000, 0.01333333, 0.00875000
4589, 0.02166667, 0.01333333, 0.00875000
4590, 0.02333333, 0.01333333, 0.00875000
4591, 0.02500000, 0.01333333, 0.00875000
4592, 0.02666667, 0.01333333, 0.00875000
4593, 0.02833333, 0.01333333, 0.00875000
4594, 0.03000000, 0.01333333, 0.00875000
4595, 0.03166667, 0.01333333, 0.00875000
4596, 0.03333333, 0.01333333, 0.00875000
4597, 0.03500000, 0.01333333, 0.00875000
4598, 0.03666667, 0.01333333, 0.00875000
4599, 0.03833333, 0.01333333, 0.00875000
4600, 0.04000000, 0.01333333, 0.00875000
4601, 0.00000000, 0.01500000, 0.00875000
4602, 0.00166667, 0.01500000, 0.00875000
4603, 0.00333333, 0.01500000, 0.00875000
4604, 0.00500000, 0.01500000, 0.00875000
4605, 0.00666667, 0.01500000, 0.00875000
4606, 0.00833333, 0.01500000, 0.00875000
4607, 0.01000000, 0.01500000, 0.00875000
4608, 0.01166667, 0.01500000, 0.00875000
4609, 0.01333333, 0.01500000, 0.00875000
4610, 0.01500000, 0.01500000, 0.00875000
4611, 0.01666667, 0.01500000, 0.00875000
4612, 0.01833333, 0.01500000, 0.00875000
4613, 0.02000000, 0.01500000, 0.00875000
4614, 0.02166667, 0.01500000, 0.00875000
4615, 0.02333333, 0.01500000, 0.00875000
4616, 0.02500000, 0.01500000, 0.00875000
4617, 0.02666667, 0.01500000, 0.00875000
4618, 0.02833333, 0.01500000, 0.00875000
4619, 0.03000000, 0.01500000, 0.00875000
4620, 0.03166667, 0.01500000, 0.00875000
4621, 0.03333333, 0.01500000, 0.00875000
4622, 0.03500000, 0.01500000, 0.00875000
4623, 0.03666667, 0.01500000, 0.00875000
4624, 0.03833333, 0.01500000, 0.00875000
4625, 0.04000000, 0.01500000, 0.00875000
4626, 0.00000000, 0.01666667, 0.00875000
4627, 0.00166667, 0.01666667, 0.00875000
4628, 0.00333333, 0.01666667, 0.00875000
4629, 0.00500000, 0.01666667, 0.00875000
4630, 0.00666667, 0.01666667, 0.00875000
4631, 0.00833333, 0.01666667, 0.00875000
4632, 0.01000000, 0.01666667, 0.00875000
4633, 0.01166667, 0.01666667, 0.00875000
4634, 0.01333333, 0.01666667, 0.00875000
4635, 0.01500000, 0.01666667, 0.00875000
4636, 0.01666667, 0.01666667, 0.00875000
4637, 0.01833333, 0.01666667, 0.00875000
4638, 0.02000000, 0.01666667, 0.00875000
4639, 0.02166667, 0.01666667, 0.00875000
4640, 0.02333333, 0.01666667, 0.00875000
4641, 0.02500000, 0.01666667, 0.00875000
4642, 0.02666667, 0.01666667, 0.00875000
4643, 0.02833333, 0.01666667, 0.00875000
4644, 0.03000000, 0.01666667, 0.00875000
4645, 0.03166667, 0.01666667, 0.00875000
4646, 0.03333333, 0.01666667, 0.00875000
4647, 0.03500000, 0.01666667, 0.00875000
4648, 0.03666667, 0.01666667, 0.00875000
4649, 0.03833333, 0.01666667, 0.00875000
4650, 0.04000000, 0.01666667, 0.00875000
4651, 0.00000000, 0.01833333, 0.00875000
4652, 0.00166667, 0.01833333, 0.00875000
4653, 0.00333333, 0.01833333, 0.00875000
4654, 0.00500000, 0.01833333, 0.00875000
4655, 0.00666667, 0.01833333, 0.00875000
4656, 0.00833333, 0.01833333, 0.00875000
4657, 0.01000000, 0.01833333, 0.00875000
4658, 0.01166667, 0.01833333, 0.00875000
4659, 0.01333333, 0.01833333, 0.00875000
4660, 0.01500000, 0.01833333, 0.00875000
4661, 0.01666667, 0.01833333, 0.00875000
4662, 0.01833333, 0.01833333, 0.00875000
4663, 0.02000000, 0.01833333, 0.00875000
4664, 0.02166667, 0.01833333, 0.00875000
4665, 0.02333333, 0.01833333, 0.00875000
4666, 0.02500000, 0.01833333, 0.00875000
4667, 0.02666667, 0.01833333, 0.00875000
4668, 0.02833333, 0.01833333, 0.00875000
4669, 0.03000000, 0.01833333, 0.00875000
4670, 0.03166667, 0.01833333, 0.00875000
4671, 0.03333333, 0.01833333, 0.00875000
4672, 0.03500000, 0.01833333, 0.00875000
4673, 0.03666667, 0.01833333, 0.00875000
4674, 0.03833333, 0.01833333, 0.00875000
4675, 0.04000000, 0.01833333, 0.00875000
4676, 0.00000000, 0.02000000, 0.00875000
4677, 0.00166667, 0.02000000, 0.00875000
4678, 0.00333333, 0.02000000, 0.00875000
4679, 0.00500000, 0.02000000, 0.00875000
4680, 0.00666667, 0.02000000, 0.00875000
4681, 0.00833333, 0.02000000, 0.00875000
4682, 0.01000000, 0.02000000, 0.00875000
4683, 0.01166667, 0.02000000, 0.00875000
4684, 0.01333333, 0.02000000, 0.00875000
4685, 0.01500000, 0.02000000, 0.00875000
4686, 0.01666667, 0.02000000, 0.00875000
4687, 0.01833333, 0.02000000, 0.00875000
4688, 0.02000000, 0.02000000, 0.00875000
4689, 0.02166667, 0.02000000, 0.00875000
4690, 0.02333333, 0.02000000, 0.00875000
4691, 0.02500000, 0.02000000, 0.00875000
4692, 0.02666667, 0.02000000, 0.00875000
4693, 0.02833333, 0.02000000, 0.00875000
4694, 0.03000000, 0.02000000, 0.00875000
4695, 0.03166667, 0.02000000, 0.00875000
4696, 0.03333333, 0.02000000, 0.00875000
4697, 0.03500000, 0.02000000, 0.00875000
4698, 0.03666667, 0.02000000, 0.00875000
4699, 0.03833333, 0.02000000, 0.00875000
4700, 0.04000000, 0.02000000, 0.00875000
4701, 0.00000000, 0.02166667, 0.00875000
4702, 0.00166667, 0.02166667, 0.00875000
4703, 0.00333333, 0.02166667, 0.00875000
4704, 0.00500000, 0.02166667, 0.00875000
4705, 0.00666667, 0.02166667, 0.00875000
4706, 0.00833333, 0.02166667, 0.00875000
4707, 0.01000000, 0.02166667, 0.00875000
4708, 0.01166667, 0.02166667, 0.00875000
4709, 0.01333333, 0.02166667, 0.00875000
4710, 0.01500000, 0.02166667, 0.00875000
4711, 0.01666667, 0.02166667, 0.00875000
4712, 0.01833333, 0.02166667, 0.00875000
4713, 0.02000000, 0.02166667, 0.00875000
4714, 0.02166667, 0.02166667, 0.00875000
4715, 0.02333333, 0.02166667, 0.00875000
4716, 0.02500000, 0.02166667, 0.00875000
4717, 0.02666667, 0.02166667, 0.00875000
4718, 0.02833333, 0.02166667, 0.00875000
4719, 0.03000000, 0.02166667, 0.00875000
4720, 0.03166667, 0.02166667, 0.00875000
4721, 0.03333333, 0.02166667, 0.00875000
4722, 0.03500000, 0.02166667, 0.00875000
4723, 0.03666667, 0.02166667, 0.00875000
4724, 0.03833333, 0.02166667, 0.00875000
4725, 0.04000000, 0.02166667, 0.00875000
4726, 0.00000000, 0.02333333, 0.00875000
4727, 0.00166667, 0.02333333, 0.00875000
4728, 0.00333333, 0.02333333, 0.00875000
4729, 0.00500000, 0.02333333, 0.00875000
4730, 0.00666667, 0.02333333, 0.00875000
4731, 0.00833333, 0.02333333, 0.00875000
4732, 0.01000000, 0.02333333, 0.00875000
4733, 0.01166667, 0.02333333, 0.00875000
4734, 0.01333333, 0.02333333, 0.00875000
4735, 0.01500000, 0.02333333, 0.00875000
4736, 0.01666667, 0.02333333, 0.00875000
4737, 0.01833333, 0.02333333, 0.00875000
4738, 0.02000000, 0.02333333, 0.00875000
4739, 0.02166667, 0.02333333, 0.00875000
4740, 0.02333333, 0.02333333, 0.00875000
4741, 0.02500000, 0.02333333, 0.00875000
4742, 0.02666667, 0.02333333, 0.00875000
4743, 0.02833333, 0.02333333, 0.00875000
4744, 0.03000000, 0.02333333, 0.00875000
4745, 0.03166667, 0.02333333, 0.00875000
4746, 0.03333333, 0.02333333, 0.00875000
4747, 0.03500000, 0.02333333, 0.00875000
4748, 0.03666667, 0.02333333, 0.00875000
4749, 0.03833333, 0.02333333, 0.00875000
4750, 0.04000000, 0.02333333, 0.00875000
4751, 0.00000000, 0.02500000, 0.00875000
4752, 0.00166667, 0.02500000, 0.00875000
4753, 0.00333333, 0.02500000, 0.00875000
4754, 0.00500000, 0.02500000, 0.00875000
4755, 0.00666667, 0.02500000, 0.00875000
4756, 0.00833333, 0.02500000, 0.00875000
4757, 0.01000000, 0.02500000, 0.00875000
4758, 0.01166667, 0.02500000, 0.00875000
4759, 0.01333333, 0.02500000, 0.00875000
4760, 0.01500000, 0.02500000, 0.00875000
4761, 0.01666667, 0.02500000, 0.00875000
4762, 0.01833333, 0.02500000, 0.00875000
4763, 0.02000000, 0.02500000, 0.00875000
4764, 0.02166667, 0.02500000, 0.00875000
4765, 0.02333333, 0.02500000, 0.00875000
4766, 0.02500000, 0.02500000, 0.00875000
4767, 0.02666667, 0.02500000, 0.00875000
4768, 0.02833333, 0.02500000, 0.00875000
4769, 0.03000000, 0.02500000, 0.00875000
4770, 0.03166667, 0.02500000, 0.00875000
4771, 0.03333333, 0.02500000, 0.00875000
4772, 0.03500000, 0.02500000, 0.00875000
4773, 0.03666667, 0.02500000, 0.00875000
4774, 0.03833333, 0.02500000, 0.00875000
4775, 0.04000000, 0.02500000, 0.00875000
4776, 0.00000000, 0.02666667, 0.00875000
4777, 0.00166667, 0.02666667, 0.00875000
4778, 0.00333333, 0.02666667, 0.00875000
4779, 0.00500000, 0.02666667, 0.00875000
4780, 0.00666667, 0.02666667, 0.00875000
4781, 0.00833333, 0.02666667, 0.00875000
4782, 0.01000000, 0.02666667, 0.00875000
4783, 0.01166667, 0.02666667, 0.00875000
4784, 0.01333333, 0.02666667, 0.00875000
4785, 0.01500000, 0.02666667, 0.00875000
4786, 0.01666667, 0.02666667, 0.00875000
4787, 0.01833333, 0.02666667, 0.00875000
4788, 0.02000000, 0.02666667, 0.00875000
4789, 0.02166667, 0.02666667, 0.00875000
4790, 0.02333333, 0.02666667, 0.00875000
4791, 0.02500000, 0.02666667, 0.00875000
4792, 0.02666667, 0.02666667, 0.00875000
4793, 0.02833333, 0.02666667, 0.00875000
4794, 0.03000000, 0.02666667, 0.00875000
4795, 0.03166667, 0.02666667, 0.00875000
4796, 0.03333333, 0.02666667, 0.00875000
4797, 0.03500000, 0.02666667, 0.00875000
4798, 0.03666667, 0.02666667, 0.00875000
4799, 0.03833333, 0.02666667, 0.00875000
4800, 0.04000000, 0.02666667, 0.00875000
4801, 0.00000000, 0.02833333, 0.00875000
4802, 0.00166667, 0.02833333, 0.00875000
4803, 0.00333333, 0.02833333, 0.00875000
4804, 0.00500000, 0.02833333, 0.00875000
4805, 0.00666667, 0.02833333, 0.00875000
4806, 0.00833333, 0.02833333, 0.00875000
4807, 0.01000000, 0.02833333, 0.00875000
4808, 0.01166667, 0.02833333, 0.00875000
4809, 0.01333333, 0.02833333, 0.00875000
4810, 0.01500000, 0.02833333, 0.00875000
4811, 0.01666667, 0.02833333, 0.00875000
4812, 0.01833333, 0.02833333, 0.00875000
4813, 0.02000000, 0.02833333, 0.00875000
4814, 0.02166667, 0.02833333, 0.00875000
4815, 0.02333333, 0.02833333, 0.00875000
4816, 0.02500000, 0.02833333, 0.00875000
4817, 0.02666667, 0.02833333, 0.00875000
4818, 0.02833333, 0.02833333, 0.00875000
4819, 0.03000000, 0.02833333, 0.00875000
4820, 0.03166667, 0.02833333, 0.00875000
4821, 0.03333333, 0.02833333, 0.00875000
4822, 0.03500000, 0.02833333, 0.00875000
4823, 0.03666667, 0.02833333, 0.00875000
4824, 0.03833333, 0.02833333, 0.00875000
4825, 0.04000000, 0.02833333, 0.00875000
4826, 0.00000000, 0.03000000, 0.00875000
4827, 0.00166667, 0.03000000, 0.00875000
4828, 0.00333333, 0.03000000, 0.00875000
4829, 0.00500000, 0.03000000, 0.00875000
4830, 0.00666667, 0.03000000, 0.00875000
4831, 0.00833333, 0.03000000, 0.00875000
4832, 0.01000000, 0.03000000, 0.00875000
4833, 0.01166667, 0.03000000, 0.00875000
4834, 0.01333333, 0.03000000, 0.00875000
4835, 0.01500000, 0.03000000, 0.00875000
4836, 0.01666667, 0.03000000, 0.00875000
4837, 0.01833333, 0.03000000, 0.00875000
4838, 0.02000000, 0.03000000, 0.00875000
4839, 0.02166667, 0.03000000, 0.00875000
4840, 0.02333333, 0.03000000, 0.00875000
4841, 0.02500000, 0.03000000, 0.00875000
4842, 0.02666667, 0.03000000, 0.00875000
4843, 0.02833333, 0.03000000, 0.00875000
4844, 0.03000000, 0.03000000, 0.00875000
4845, 0.03166667, 0.03000000, 0.00875000
4846, 0.03333333, 0.03000000, 0.00875000
4847, 0.03500000, 0.03000000, 0.00875000
4848, 0.03666667, 0.03000000, 0.00875000
4849, 0.03833333, 0.03000000, 0.00875000
4850, 0.04000000, 0.03000000, 0.00875000
4851, 0.00000000, 0.03166667, 0.00875000
4852, 0.00166667, 0.03166667, 0.00875000
4853, 0.00333333, 0.03166667, 0.00875000
4854, 0.00500000, 0.03166667, 0.00875000
4855, 0.00666667, 0.03166667, 0.00875000
4856, 0.00833333, 0.03166667, 0.00875000
4857, 0.01000000, 0.03166667, 0.00875000
4858, 0.01166667, 0.03166667, 0.00875000
4859, 0.01333333, 0.03166667, 0.00875000
4860, 0.01500000, 0.03166667, 0.00875000
4861, 0.01666667, 0.03166667, 0.00875000
4862, 0.01833333, 0.03166667, 0.00875000
4863, 0.02000000, 0.03166667, 0.00875000
4864, 0.02166667, 0.03166667, 0.00875000
4865, 0.02333333, 0.03166667, 0.00875000
4866, 0.02500000, 0.03166667, 0.00875000
4867, 0.02666667, 0.03166667, 0.00875000
4868, 0.02833333, 0.03166667, 0.00875000
4869, 0.03000000, 0.03166667, 0.00875000
4870, 0.03166667, 0.03166667, 0.00875000
4871, 0.03333333, 0.03166667, 0.00875000
4872, 0.03500000, 0.03166667, 0.00875000
4873, 0.03666667, 0.03166667, 0.00875000
4874, 0.03833333, 0.03166667, 0.00875000
4875, 0.04000000, 0.03166667, 0.00875000
4876, 0.00000000, 0.03333333, 0.00875000
4877, 0.00166667, 0.03333333, 0.00875000
4878, 0.00333333, 0.03333333, 0.00875000
4879, 0.00500000, 0.03333333, 0.00875000
4880, 0.00666667, 0.03333333, 0.00875000
4881, 0.00833333, 0.03333333, 0.00875000
4882, 0.01000000, 0.03333333, 0.00875000
4883, 0.01166667, 0.03333333, 0.00875000
4884, 0.01333333, 0.03333333, 0.00875000
4885, 0.01500000, 0.03333333, 0.00875000
4886, 0.01666667, 0.03333333, 0.00875000
4887, 0.01833333, 0.03333333, 0.00875000
4888, 0.02000000, 0.03333333, 0.00875000
4889, 0.02166667, 0.03333333, 0.00875000
4890, 0.02333333, 0.03333333, 0.00875000
4891, 0.02500000, 0.03333333, 0.00875000
4892, 0.02666667, 0.03333333, 0.00875000
4893, 0.02833333, 0.03333333, 0.00875000
4894, 0.03000000, 0.03333333, 0.00875000
4895, 0.03166667, 0.03333333, 0.00875000
4896, 0.03333333, 0.03333333, 0.00875000
4897, 0.03500000, 0.03333333, 0.00875000
4898, 0.03666667, 0.03333333, 0.00875000
4899, 0.03833333, 0.03333333, 0.00875000
4900, 0.04000000, 0.03333333, 0.00875000
4901, 0.00000000, 0.03500000, 0.00875000
4902, 0.00166667, 0.03500000, 0.00875000
4903, 0.00333333, 0.03500000, 0.00875000
4904, 0.00500000, 0.03500000, 0.00875000
4905, 0.00666667, 0.03500000, 0.00875000
4906, 0.00833333, 0.03500000, 0.00875000
4907, 0.01000000, 0.03500000, 0.00875000
4908, 0.01166667, 0.03500000, 0.00875000
4909, 0.01333333, 0.03500000, 0.00875000
4910, 0.01500000, 0.03500000, 0.00875000
4911, 0.01666667, 0.03500000, 0.00875000
4912, 0.01833333, 0.03500000, 0.00875000
4913, 0.02000000, 0.03500000, 0.00875000
4914, 0.02166667, 0.03500000, 0.00875000
4915, 0.02333333, 0.03500000, 0.00875000
4916, 0.02500000, 0.03500000, 0.00875000
4917, 0.02666667, 0.03500000, 0.00875000
4918, 0.02833333, 0.03500000, 0.00875000
4919, 0.03000000, 0.03500000, 0.00875000
4920, 0.03166667, 0.03500000, 0.00875000
4921, 0.03333333, 0.03500000, 0.00875000
4922, 0.03500000, 0.03500000, 0.00875000
4923, 0.03666667, 0.03500000, 0.00875000
4924, 0.03833333, 0.03500000, 0.00875000
4925, 0.04000000, 0.03500000, 0.00875000
4926, 0.00000000, 0.03666667, 0.00875000
4927, 0.00166667, 0.03666667, 0.00875000
4928, 0.00333333, 0.03666667, 0.00875000
4929, 0.00500000, 0.03666667, 0.00875000
4930, 0.00666667, 0.03666667, 0.00875000
4931, 0.00833333, 0.03666667, 0.00875000
4932, 0.01000000, 0.03666667, 0.00875000
4933, 0.01166667, 0.03666667, 0.00875000
4934, 0.01333333, 0.03666667, 0.00875000
4935, 0.01500000, 0.03666667, 0.00875000
4936, 0.01666667, 0.03666667, 0.00875000
4937, 0.01833333, 0.03666667, 0.00875000
4938, 0.02000000, 0.03666667, 0.00875000
4939, 0.02166667, 0.03666667, 0.00875000
4940, 0.02333333, 0.03666667, 0.00875000
4941, 0.02500000, 0.03666667, 0.00875000
4942, 0.02666667, 0.03666667, 0.00875000
4943, 0.02833333, 0.03666667, 0.00875000
4944, 0.03000000, 0.03666667, 0.00875000
4945, 0.03166667, 0.03666667, 0.00875000
4946, 0.03333333, 0.03666667, 0.00875000
4947, 0.03500000, 0.03666667, 0.00875000
4948, 0.03666667, 0.03666667, 0.00875000
4949, 0.03833333, 0.03666667, 0.00875000
4950, 0.04000000, 0.03666667, 0.00875000
4951, 0.00000000, 0.03833333, 0.00875000
4952, 0.00166667, 0.03833333, 0.00875000
4953, 0.00333333, 0.03833333, 0.00875000
4954, 0.00500000, 0.03833333, 0.00875000
4955, 0.00666667, 0.03833333, 0.00875000
4956, 0.00833333, 0.03833333, 0.00875000
4957, 0.01000000, 0.03833333, 0.00875000
4958, 0.01166667, 0.03833333, 0.00875000
4959, 0.01333333, 0.03833333, 0.00875000
4960, 0.01500000, 0.03833333, 0.00875000
4961, 0.01666667, 0.03833333, 0.00875000
4962, 0.01833333, 0.03833333, 0.00875000
4963, 0.02000000, 0.03833333, 0.00875000
4964, 0.02166667, 0.03833333, 0.00875000
4965, 0.02333333, 0.03833333, 0.00875000
4966, 0.02500000, 0.03833333, 0.00875000
4967, 0.02666667, 0.03833333, 0.00875000
4968, 0.02833333, 0.03833333, 0.00875000
4969, 0.03000000, 0.03833333, 0.00875000
4970, 0.03166667, 0.03833333, 0.00875000
4971, 0.03333333, 0.03833333, 0.00875000
4972, 0.03500000, 0.03833333, 0.00875000
4973, 0.03666667, 0.03833333, 0.00875000
4974, 0.03833333, 0.03833333, 0.00875000
4975, 0.04000000, 0.03833333, 0.00875000
4976, 0.00000000, 0.04000000, 0.00875000
4977, 0.00166667, 0.04000000, 0.00875000
4978, 0.00333333, 0.04000000, 0.00875000
4979, 0.00500000, 0.04000000, 0.00875000
4980, 0.00666667, 0.04000000, 0.00875000
4981, 0.00833333, 0.04000000, 0.00875000
4982, 0.01000000, 0.04000000, 0.00875000
4983, 0.01166667, 0.04000000, 0.00875000
4984, 0.01333333, 0.04000000, 0.00875000
4985, 0.01500000, 0.04000000, 0.00875000
4986, 0.01666667, 0.04000000, 0.00875000
4987, 0.01833333, 0.04000000, 0.00875000
4988, 0.02000000, 0.04000000, 0.00875000
4989, 0.02166667, 0.04000000, 0.00875000
4990, 0.02333333, 0.04000000, 0.00875000
4991, 0.02500000, 0.04000000, 0.00875000
4992, 0.02666667, 0.04000000, 0.00875000
4993, 0.02833333, 0.04000000, 0.00875000
4994, 0.03000000, 0.04000000, 0.00875000
4995, 0.03166667, 0.04000000, 0.00875000
4996, 0.03333333, 0.04000000, 0.00875000
4997, 0.03500000, 0.04000000, 0.00875000
4998, 0.03666667, 0.04000000, 0.00875000
4999, 0.03833333, 0.04000000, 0.00875000
5000, 0.04000000, 0.04000000, 0.00875000
5001, 0.00000000, 0.00000000, 0.01000000
5002, 0.00166667, 0.00000000, 0.01000000
5003, 0.00333333, 0.00000000, 0.01000000
5004, 0.00500000, 0.00000000, 0.01000000
5005, 0.00666667, 0.00000000, 0.01000000
5006, 0.00833333, 0.00000000, 0.01000000
5007, 0.01000000, 0.00000000, 0.01000000
5008, 0.01166667, 0.00000000, 0.01000000
5009, 0.01333333, 0.00000000, 0.01000000
5010, 0.01500000, 0.00000000, 0.01000000
5011, 0.01666667, 0.00000000, 0.01000000
5012, 0.01833333, 0.00000000, 0.01000000
5013, 0.02000000, 0.00000000, 0.01000000
5014, 0.02166667, 0.00000000, 0.01000000
5015, 0.02333333, 0.00000000, 0.01000000
5016, 0.02500000, 0.00000000, 0.01000000
5017, 0.02666667, 0.00000000, 0.01000000
5018, 0.02833333, 0.00000000, 0.01000000
5019, 0.03000000, 0.00000000, 0.01000000
5020, 0.03166667, 0.00000000, 0.01000000
5021, 0.03333333, 0.00000000, 0.01000000
5022, 0.03500000, 0.00000000, 0.01000000
5023, 0.03666667, 0.00000000, 0.01000000
5024, 0.03833333, 0.00000000, 0.01000000
5025, 0.04000000, 0.00000000, 0.01000000
5026, 0.00000000, 0.00166667, 0.01000000
5027, 0.00166667, 0.00166667, 0.01000000
5028, 0.00333333, 0.00166667, 0.01000000
5029, 0.00500000, 0.00166667, 0.01000000
5030, 0.00666667, 0.00166667, 0.01000000
5031, 0.00833333, 0.00166667, 0.01000000
5032, 0.01000000, 0.00166667, 0.01000000
5033, 0.01166667, 0.00166667, 0.01000000
5034, 0.01333333, 0.00166667, 0.01000000
5035, 0.01500000, 0.00166667, 0.01000000
5036, 0.01666667, 0.00166667, 0.01000000
5037, 0.01833333, 0.00166667, 0.01000000
5038, 0.02000000, 0.00166667, 0.01000000
5039, 0.02166667, 0.00166667, 0.01000000
5040, 0.02333333, 0.00166667, 0.01000000
5041, 0.02500000, 0.00166667, 0.01000000
5042, 0.02666667, 0.00166667, 0.01000000
5043, 0.02833333, 0.00166667, 0.01000000
5044, 0.03000000, 0.00166667, 0.01000000
5045, 0.03166667, 0.00166667, 0.01000000
5046, 0.03333333, 0.00166667, 0.01000000
5047, 0.03500000, 0.00166667, 0.01000000
5048, 0.03666667, 0.00166667, 0.01000000
5049, 0.03833333, 0.00166667, 0.01000000
5050, 0.04000000, 0.00166667, 0.01000000
5051, 0.00000000, 0.00333333, 0.01000000
5052, 0.00166667, 0.00333333, 0.01000000
5053, 0.00333333, 0.00333333, 0.01000000
5054, 0.00500000, 0.00333333, 0.01000000
5055, 0.00666667, 0.00333333, 0.01000000
5056, 0.00833333, 0.00333333, 0.01000000
5057, 0.01000000, 0.00333333, 0.01000000
5058, 0.01166667, 0.00333333, 0.01000000
5059, 0.01333333, 0.00333333, 0.01000000
5060, 0.01500000, 0.00333333, 0.01000000
5061, 0.01666667, 0.00333333, 0.01000000
5062, 0.01833333, 0.00333333, 0.01000000
5063, 0.02000000, 0.00333333, 0.01000000
5064, 0.02166667, 0.00333333, 0.01000000
5065, 0.02333333, 0.00333333, 0.01000000
5066, 0.02500000, 0.00333333, 0.01000000
5067, 0.02666667, 0.00333333, 0.01000000
5068, 0.02833333, 0.00333333, 0.01000000
5069, 0.03000000, 0.00333333, 0.01000000
5070, 0.03166667, 0.00333333, 0.01000000
5071, 0.03333333, 0.00333333, 0.01000000
5072, 0.03500000, 0.00333333, 0.01000000
5073, 0.03666667, 0.00333333, 0.01000000
5074, 0.03833333, 0.00333333, 0.01000000
5075, 0.04000000, 0.00333333, 0.01000000
5076, 0.00000000, 0.00500000, 0.01000000
5077, 0.00166667, 0.00500000, 0.01000000
5078, 0.00333333, 0.00500000, 0.01000000
5079, 0.00500000, 0.00500000, 0.01000000
5080, 0.00666667, 0.00500000, 0.01000000
5081, 0.00833333, 0.00500000, 0.01000000
5082, 0.01000000, 0.00500000, 0.01000000
5083, 0.01166667, 0.00500000, 0.01000000
5084, 0.01333333, 0.00500000, 0.01000000
5085, 0.01500000, 0.00500000, 0.01000000
5086, 0.01666667, 0.00500000, 0.01000000
5087, 0.01833333, 0.00500000, 0.01000000
5088, 0.02000000, 0.00500000, 0.01000000
5089, 0.02166667, 0.00500000, 0.01000000
5090, 0.02333333, 0.00500000, 0.01000000
5091, 0.02500000, 0.00500000, 0.01000000
5092, 0.02666667, 0.00500000, 0.01000000
5093, 0.02833333, 0.00500000, 0.01000000
5094, 0.03000000, 0.00500000, 0.01000000
5095, 0.03166667, 0.00500000, 0.01000000
5096, 0.03333333, 0.00500000, 0.01000000
5097, 0.03500000, 0.00500000, 0.01000000
5098, 0.03666667, 0.00500000, 0.01000000
5099, 0.03833333, 0.00500000, 0.01000000
5100, 0.04000000, 0.00500000, 0.01000000
5101, 0.00000000, 0.00666667, 0.01000000
5102, 0.00166667, 0.00666667, 0.01000000
5103, 0.00333333, 0.00666667, 0.01000000
5104, 0.00500000, 0.00666667, 0.01000000
5105, 0.00666667, 0.00666667, 0.01000000
5106, 0.00833333, 0.00666667, 0.01000000
5107, 0.01000000, 0.00666667, 0.01000000
5108, 0.01166667, 0.00666667, 0.01000000
5109, 0.01333333, 0.00666667, 0.01000000
5110, 0.01500000, 0.00666667, 0.01000000
5111, 0.01666667, 0.00666667, 0.01000000
5112, 0.01833333, 0.00666667, 0.01000000
5113, 0.02000000, 0.00666667, 0.01000000
5114, 0.02166667, 0.00666667, 0.01000000
5115, 0.02333333, 0.00666667, 0.01000000
5116, 0.02500000, 0.00666667, 0.01000000
5117, 0.02666667, 0.00666667, 0.01000000
5118, 0.02833333, 0.00666667, 0.01000000
5119, 0.03000000, 0.00666667, 0.01000000
5120, 0.03166667, 0.00666667, 0.01000000
5121, 0.03333333, 0.00666667, 0.01000000
5122, 0.03500000, 0.00666667, 0.01000000
5123, 0.03666667, 0.00666667, 0.01000000
5124, 0.03833333, 0.00666667, 0.01000000
5125, 0.04000000, 0.00666667, 0.01000000
5126, 0.00000000, 0.00833333, 0.01000000
5127, 0.00166667, 0.00833333, 0.01000000
5128, 0.00333333, 0.00833333, 0.01000000
5129, 0.00500000, 0.00833333, 0.01000000
5130, 0.00666667, 0.00833333, 0.01000000
5131, 0.00833333, 0.00833333, 0.01000000
5132, 0.01000000, 0.00833333, 0.01000000
5133, 0.01166667, 0.00833333, 0.01000000
5134, 0.01333333, 0.00833333, 0.01000000
5135, 0.01500000, 0.00833333, 0.01000000
5136, 0.01666667, 0.00833333, 0.01000000
5137, 0.01833333, 0.00833333, 0.01000000
5138, 0.02000000, 0.00833333, 0.01000000
5139, 0.02166667, 0.00833333, 0.01000000
5140, 0.02333333, 0.00833333, 0.01000000
5141, 0.02500000, 0.00833333, 0.01000000
5142, 0.02666667, 0.00833333, 0.01000000
5143, 0.02833333, 0.00833333, 0.01000000
5144, 0.03000000, 0.00833333, 0.01000000
5145, 0.03166667, 0.00833333, 0.01000000
5146, 0.03333333, 0.00833333, 0.01000000
5147, 0.03500000, 0.00833333, 0.01000000
5148, 0.03666667, 0.00833333, 0.01000000
5149, 0.03833333, 0.00833333, 0.01000000
5150, 0.04000000, 0.00833333, 0.01000000
5151, 0.00000000, 0.01000000, 0.01000000
5152, 0.00166667, 0.01000000, 0.01000000
5153, 0.00333333, 0.01000000, 0.01000000
5154, 0.00500000, 0.01000000, 0.01000000
5155, 0.00666667, 0.01000000, 0.01000000
5156, 0.00833333, 0.01000000, 0.01000000
5157, 0.01000000, 0.01000000, 0.01000000
5158, 0.01166667, 0.01000000, 0.01000000
5159, 0.01333333, 0.01000000, 0.01000000
5160, 0.01500000, 0.01000000, 0.01000000
5161, 0.01666667, 0.01000000, 0.01000000
5162, 0.01833333, 0.01000000, 0.01000000
5163, 0.02000000, 0.01000000, 0.01000000
5164, 0.02166667, 0.01000000, 0.01000000
5165, 0.02333333, 0.01000000, 0.01000000
5166, 0.02500000, 0.01000000, 0.01000000
5167, 0.02666667, 0.01000000, 0.01000000
5168, 0.02833333, 0.01000000, 0.01000000
5169, 0.03000000, 0.01000000, 0.01000000
5170, 0.03166667, 0.01000000, 0.01000000
5171, 0.03333333, 0.01000000, 0.01000000
5172, 0.03500000, 0.01000000, 0.01000000
5173, 0.03666667, 0.01000000, 0.01000000
5174, 0.03833333, 0.01000000, 0.01000000
5175, 0.04000000, 0.01000000, 0.01000000
5176, 0.00000000, 0.01166667, 0.01000000
5177, 0.00166667, 0.01166667, 0.01000000
5178, 0.00333333, 0.01166667, 0.01000000
5179, 0.00500000, 0.01166667, 0.01000000
5180, 0.00666667, 0.01166667, 0.01000000
5181, 0.00833333, 0.01166667, 0.01000000
5182, 0.01000000, 0.01166667, 0.01000000
5183, 0.01166667, 0.01166667, 0.01000000
5184, 0.01333333, 0.01166667, 0.01000000
5185, 0.01500000, 0.01166667, 0.01000000
5186, 0.01666667, 0.01166667, 0.01000000
5187, 0.01833333, 0.01166667, 0.01000000
5188, 0.02000000, 0.01166667, 0.01000000
5189, 0.02166667, 0.01166667, 0.01000000
5190, 0.02333333, 0.01166667, 0.01000000
5191, 0.02500000, 0.01166667, 0.01000000
5192, 0.02666667, 0.01166667, 0.01000000
5193, 0.02833333, 0.01166667, 0.01000000
5194, 0.03000000, 0.01166667, 0.01000000
5195, 0.03166667, 0.01166667, 0.01000000
5196, 0.03333333, 0.01166667, 0.01000000
5197, 0.03500000, 0.01166667, 0.01000000
5198, 0.03666667, 0.01166667, 0.01000000
5199, 0.03833333, 0.01166667, 0.01000000
5200, 0.04000000, 0.01166667, 0.01000000
5201, 0.00000000, 0.01333333, 0.01000000
5202, 0.00166667, 0.01333333, 0.01000000
5203, 0.00333333, 0.01333333, 0.01000000
5204, 0.00500000, 0.01333333, 0.01000000
5205, 0.00666667, 0.01333333, 0.01000000
5206, 0.00833333, 0.01333333, 0.01000000
5207, 0.01000000, 0.01333333, 0.01000000
5208, 0.01166667, 0.01333333, 0.01000000
5209, 0.01333333, 0.01333333, 0.01000000
5210, 0.01500000, 0.01333333, 0.01000000
5211, 0.01666667, 0.01333333, 0.01000000
5212, 0.01833333, 0.01333333, 0.01000000
5213, 0.02000000, 0.01333333, 0.01000000
5214, 0.02166667, 0.01333333, 0.01000000
5215, 0.02333333, 0.01333333, 0.01000000
5216, 0.02500000, 0.01333333, 0.01000000
5217, 0.02666667, 0.01333333, 0.01000000
5218, 0.02833333, 0.01333333, 0.01000000
5219, 0.03000000, 0.01333333, 0.01000000
5220, 0.03166667, 0.01333333, 0.01000000
5221, 0.03333333, 0.01333333, 0.01000000
5222, 0.03500000, 0.01333333, 0.01000000
5223, 0.03666667, 0.01333333, 0.01000000
5224, 0.03833333, 0.01333333, 0.01000000
5225, 0.04000000, 0.01333333, 0.01000000
5226, 0.00000000, 0.01500000, 0.01000000
5227, 0.00166667, 0.01500000, 0.01000000
5228, 0.00333333, 0.01500000, 0.01000000
5229, 0.00500000, 0.01500000, 0.01000000
5230, 0.00666667, 0.01500000, 0.01000000
5231, 0.00833333, 0.01500000, 0.01000000
5232, 0.01000000, 0.01500000, 0.01000000
5233, 0.01166667, 0.01500000, 0.01000000
5234, 0.01333333, 0.01500000, 0.01000000
5235, 0.01500000, 0.01500000, 0.01000000
5236, 0.01666667, 0.01500000, 0.01000000
5237, 0.01833333, 0.01500000, 0.01000000
5238, 0.02000000, 0.01500000, 0.01000000
5239, 0.02166667, 0.01500000, 0.01000000
5240, 0.02333333, 0.01500000, 0.01000000
5241, 0.02500000, 0.01500000, 0.01000000
5242, 0.02666667, 0.01500000, 0.01000000
5243, 0.02833333, 0.01500000, 0.01000000
5244, 0.03000000, 0.01500000, 0.01000000
5245, 0.03166667, 0.01500000, 0.01000000
5246, 0.03333333, 0.01500000, 0.01000000
5247, 0.03500000, 0.01500000, 0.01000000
5248, 0.03666667, 0.01500000, 0.01000000
5249, 0.03833333, 0.01500000, 0.01000000
5250, 0.04000000, 0.01500000, 0.01000000
5251, 0.00000000, 0.01666667, 0.01000000
5252, 0.00166667, 0.01666667, 0.01000000
5253, 0.00333333, 0.01666667, 0.01000000
5254, 0.00500000, 0.01666667, 0.01000000
5255, 0.00666667, 0.01666667, 0.01000000
5256, 0.00833333, 0.01666667, 0.01000000
5257, 0.01000000, 0.01666667, 0.01000000
5258, 0.01166667, 0.01666667, 0.01000000
5259, 0.01333333, 0.01666667, 0.01000000
5260, 0.01500000, 0.01666667, 0.01000000
5261, 0.01666667, 0.01666667, 0.01000000
5262, 0.01833333, 0.01666667, 0.01000000
5263, 0.02000000, 0.01666667, 0.01000000
5264, 0.02166667, 0.01666667, 0.01000000
5265, 0.02333333, 0.01666667, 0.01000000
5266, 0.02500000, 0.01666667, 0.01000000
5267, 0.02666667, 0.01666667, 0.01000000
5268, 0.02833333, 0.01666667, 0.01000000
5269, 0.03000000, 0.01666667, 0.01000000
5270, 0.03166667, 0.01666667, 0.01000000
5271, 0.03333333, 0.01666667, 0.01000000
5272, 0.03500000, 0.01666667, 0.01000000
5273, 0.03666667, 0.01666667, 0.01000000
5274, 0.03833333, 0.01666667, 0.01000000
5275, 0.04000000, 0.01666667, 0.01000000
5276, 0.00000000, 0.01833333, 0.01000000
5277, 0.00166667, 0.01833333, 0.01000000
5278, 0.00333333, 0.01833333, 0.01000000
5279, 0.00500000, 0.01833333, 0.01000000
5280, 0.00666667, 0.01833333, 0.01000000
5281, 0.00833333, 0.01833333, 0.01000000
5282, 0.01000000, 0.01833333, 0.01000000
5283, 0.01166667, 0.01833333, 0.01000000
5284, 0.01333333, 0.01833333, 0.01000000
5285, 0.01500000, 0.01833333, 0.01000000
5286, 0.01666667, 0.01833333, 0.01000000
5287, 0.01833333, 0.01833333, 0.01000000
5288, 0.02000000, 0.01833333, 0.01000000
5289, 0.02166667, 0.01833333, 0.01000000
5290, 0.02333333, 0.01833333, 0.01000000
5291, 0.02500000, 0.01833333, 0.01000000
5292, 0.02666667, 0.01833333, 0.01000000
5293, 0.02833333, 0.01833333, 0.01000000
5294, 0.03000000, 0.01833333, 0.01000000
5295, 0.03166667, 0.01833333, 0.01000000
5296, 0.03333333, 0.01833333, 0.01000000
5297, 0.03500000, 0.01833333, 0.01000000
5298, 0.03666667, 0.01833333, 0.01000000
5299, 0.03833333, 0.01833333, 0.01000000
5300, 0.04000000, 0.01833333, 0.01000000
5301, 0.00000000, 0.02000000, 0.01000000
5302, 0.00166667, 0.02000000, 0.01000000
5303, 0.00333333, 0.02000000, 0.01000000
5304, 0.00500000, 0.02000000, 0.01000000
5305, 0.00666667, 0.02000000, 0.01000000
5306, 0.00833333, 0.02000000, 0.01000000
5307, 0.01000000, 0.02000000, 0.01000000
5308, 0.01166667, 0.02000000, 0.01000000
5309, 0.01333333, 0.02000000, 0.01000000
5310, 0.01500000, 0.02000000, 0.01000000
5311, 0.01666667, 0.02000000, 0.01000000
5312, 0.01833333, 0.02000000, 0.01000000
5313, 0.02000000, 0.02000000, 0.01000000
5314, 0.02166667, 0.02000000, 0.01000000
5315, 0.02333333, 0.02000000, 0.01000000
5316, 0.02500000, 0.02000000, 0.01000000
5317, 0.02666667, 0.02000000, 0.01000000
5318, 0.02833333, 0.02000000, 0.01000000
5319, 0.03000000, 0.02000000, 0.01000000
5320, 0.03166667, 0.02000000, 0.01000000
5321, 0.03333333, 0.02000000, 0.01000000
5322, 0.03500000, 0.02000000, 0.01000000
5323, 0.03666667, 0.02000000, 0.01000000
5324, 0.03833333, 0.02000000, 0.01000000
5325, 0.04000000, 0.02000000, 0.01000000
5326, 0.00000000, 0.02166667, 0.01000000
5327, 0.00166667, 0.02166667, 0.01000000
5328, 0.00333333, 0.02166667, 0.01000000
5329, 0.00500000, 0.02166667, 0.01000000
5330, 0.00666667, 0.02166667, 0.01000000
5331, 0.00833333, 0.02166667, 0.01000000
5332, 0.01000000, 0.02166667, 0.01000000
5333, 0.01166667, 0.02166667, 0.01000000
5334, 0.01333333, 0.02166667, 0.01000000
5335, 0.01500000, 0.02166667, 0.01000000
5336, 0.01666667, 0.02166667, 0.01000000
5337, 0.01833333, 0.02166667, 0.01000000
5338, 0.02000000, 0.02166667, 0.01000000
5339, 0.02166667, 0.02166667, 0.01000000
5340, 0.02333333, 0.02166667, 0.01000000
5341, 0.02500000, 0.02166667, 0.01000000
5342, 0.02666667, 0.02166667, 0.01000000
5343, 0.02833333, 0.02166667, 0.01000000
5344, 0.03000000, 0.02166667, 0.01000000
5345, 0.03166667, 0.02166667, 0.01000000
5346, 0.03333333, 0.02166667, 0.01000000
5347, 0.03500000, 0.02166667, 0.01000000
5348, 0.03666667, 0.02166667, 0.01000000
5349, 0.03833333, 0.02166667, 0.01000000
5350, 0.04000000, 0.02166667, 0.01000000
5351, 0.00000000, 0.02333333, 0.01000000
5352, 0.00166667, 0.02333333, 0.01000000
5353, 0.00333333, 0.02333333, 0.01000000
5354, 0.00500000, 0.02333333, 0.01000000
5355, 0.00666667, 0.02333333, 0.01000000
5356, 0.00833333, 0.02333333, 0.01000000
5357, 0.01000000, 0.02333333, 0.01000000
5358, 0.01166667, 0.02333333, 0.01000000
5359, 0.01333333, 0.02333333, 0.01000000
5360, 0.01500000, 0.02333333, 0.01000000
5361, 0.01666667, 0.02333333, 0.01000000
5362, 0.01833333, 0.02333333, 0.01000000
5363, 0.02000000, 0.02333333, 0.01000000
5364, 0.02166667, 0.02333333, 0.01000000
5365, 0.02333333, 0.02333333, 0.01000000
5366, 0.02500000, 0.02333333, 0.01000000
5367, 0.02666667, 0.02333333, 0.01000000
5368, 0.02833333, 0.02333333, 0.01000000
5369, 0.03000000, 0.02333333, 0.01000000
5370, 0.03166667, 0.02333333, 0.01000000
5371, 0.03333333, 0.02333333, 0.01000000
5372, 0.03500000, 0.02333333, 0.01000000
5373, 0.03666667, 0.02333333, 0.01000000
5374, 0.03833333, 0.02333333, 0.01000000
5375, 0.04000000, 0.02333333, 0.01000000
5376, 0.00000000, 0.02500000, 0.01000000
5377, 0.00166667, 0.02500000, 0.01000000
5378, 0.00333333, 0.02500000, 0.01000000
5379, 0.00500000, 0.02500000, 0.01000000
5380, 0.00666667, 0.02500000, 0.01000000
5381, 0.00833333, 0.02500000, 0.01000000
5382, 0.01000000, 0.02500000, 0.01000000
5383, 0.01166667, 0.02500000, 0.01000000
5384, 0.01333333, 0.02500000, 0.01000000
5385, 0.01500000, 0.02500000, 0.01000000
5386, 0.01666667, 0.02500000, 0.01000000
5387, 0.01833333, 0.02500000, 0.01000000
5388, 0.02000000, 0.02500000, 0.01000000
5389, 0.02166667, 0.02500000, 0.01000000
5390, 0.02333333, 0.02500000, 0.01000000
5391, 0.02500000, 0.02500000, 0.01000000
5392, 0.02666667, 0.02500000, 0.01000000
5393, 0.02833333, 0.02500000, 0.01000000
5394, 0.03000000, 0.02500000, 0.01000000
5395, 0.03166667, 0.02500000, 0.01000000
5396, 0.03333333, 0.02500000, 0.01000000
5397, 0.03500000, 0.02500000, 0.01000000
5398, 0.03666667, 0.02500000, 0.01000000
5399, 0.03833333, 0.02500000, 0.01000000
5400, 0.04000000, 0.02500000, 0.01000000
5401, 0.00000000, 0.02666667, 0.01000000
5402, 0.00166667, 0.02666667, 0.01000000
5403, 0.00333333, 0.02666667, 0.01000000
5404, 0.00500000, 0.02666667, 0.01000000
5405, 0.00666667, 0.02666667, 0.01000000
5406, 0.00833333, 0.02666667, 0.01000000
5407, 0.01000000, 0.02666667, 0.01000000
5408, 0.01166667, 0.02666667, 0.01000000
5409, 0.01333333, 0.02666667, 0.01000000
5410, 0.01500000, 0.02666667, 0.01000000
5411, 0.01666667, 0.02666667, 0.01000000
5412, 0.01833333, 0.02666667, 0.01000000
5413, 0.02000000, 0.02666667, 0.01000000
5414, 0.02166667, 0.02666667, 0.01000000
5415, 0.02333333, 0.02666667, 0.01000000
5416, 0.02500000, 0.02666667, 0.01000000
5417, 0.02666667, 0.02666667, 0.01000000
5418, 0.02833333, 0.02666667, 0.01000000
5419, 0.03000000, 0.02666667, 0.01000000
5420, 0.03166667, 0.02666667, 0.01000000
5421, 0.03333333, 0.02666667, 0.01000000
5422, 0.03500000, 0.02666667, 0.01000000
5423, 0.03666667, 0.02666667, 0.01000000
5424, 0.03833333, 0.02666667, 0.01000000
5425, 0.04000000, 0.02666667, 0.01000000
5426, 0.00000000, 0.02833333, 0.01000000
5427, 0.00166667, 0.02833333, 0.01000000
5428, 0.00333333, 0.02833333, 0.01000000
5429, 0.00500000, 0.02833333, 0.01000000
5430, 0.00666667, 0.02833333, 0.01000000
5431, 0.00833333, 0.02833333, 0.01000000
5432, 0.01000000, 0.02833333, 0.01000000
5433, 0.01166667, 0.02833333, 0.01000000
5434, 0.01333333, 0.02833333, 0.01000000
5435, 0.01500000, 0.02833333, 0.01000000
5436, 0.01666667, 0.02833333, 0.01000000
5437, 0.01833333, 0.02833333, 0.01000000
5438, 0.02000000, 0.02833333, 0.01000000
5439, 0.02166667, 0.02833333, 0.01000000
5440, 0.02333333, 0.02833333, 0.01000000
5441, 0.02500000, 0.02833333, 0.01000000
5442, 0.02666667, 0.02833333, 0.01000000
5443, 0.02833333, 0.02833333, 0.01000000
5444, 0.03000000, 0.02833333, 0.01000000
5445, 0.03166667, 0.02833333, 0.01000000
5446, 0.03333333, 0.02833333, 0.01000000
5447, 0.03500000, 0.02833333, 0.01000000
5448, 0.03666667, 0.02833333, 0.01000000
5449, 0.03833333, 0.02833333, 0.01000000
5450, 0.04000000, 0.02833333, 0.01000000
5451, 0.00000000, 0.03000000, 0.01000000
5452, 0.00166667, 0.03000000, 0.01000000
5453, 0.00333333, 0.03000000, 0.01000000
5454, 0.00500000, 0.03000000, 0.01000000
5455, 0.00666667, 0.03000000, 0.01000000
5456, 0.00833333, 0.03000000, 0.01000000
5457, 0.01000000, 0.03000000, 0.01000000
5458, 0.01166667, 0.03000000, 0.01000000
5459, 0.01333333, 0.03000000, 0.01000000
5460, 0.01500000, 0.03000000, 0.01000000
5461, 0.01666667, 0.03000000, 0.01000000
5462, 0.01833333, 0.03000000, 0.01000000
5463, 0.02000000, 0.03000000, 0.01000000
5464, 0.02166667, 0.03000000, 0.01000000
5465, 0.02333333, 0.03000000, 0.01000000
5466, 0.02500000, 0.03000000, 0.01000000
5467, 0.02666667, 0.03000000, 0.01000000
5468, 0.02833333, 0.03000000, 0.01000000
5469, 0.03000000, 0.03000000, 0.01000000
5470, 0.03166667, 0.03000000, 0.01000000
5471, 0.03333333, 0.03000000, 0.01000000
5472, 0.03500000, 0.03000000, 0.01000000
5473, 0.03666667, 0.03000000, 0.01000000
5474, 0.03833333, 0.03000000, 0.01000000
5475, 0.04000000, 0.03000000, 0.01000000
5476, 0.00000000, 0.03166667, 0.01000000
5477, 0.00166667, 0.03166667, 0.01000000
5478, 0.00333333, 0.03166667, 0.01000000
5479, 0.00500000, 0.03166667, 0.01000000
5480, 0.00666667, 0.03166667, 0.01000000
5481, 0.00833333, 0.03166667, 0.01000000
5482, 0.01000000, 0.03166667, 0.01000000
5483, 0.01166667, 0.03166667, 0.01000000
5484, 0.01333333, 0.03166667, 0.01000000
5485, 0.01500000, 0.03166667, 0.01000000
5486, 0.01666667, 0.03166667, 0.01000000
5487, 0.01833333, 0.03166667, 0.01000000
5488, 0.02000000, 0.03166667, 0.01000000
5489, 0.02166667, 0.03166667, 0.01000000
5490, 0.02333333, 0.03166667, 0.01000000
5491, 0.02500000, 0.03166667, 0.01000000
5492, 0.02666667, 0.03166667, 0.01000000
5493, 0.02833333, 0.03166667, 0.01000000
5494, 0.03000000, 0.03166667, 0.01000000
5495, 0.03166667, 0.03166667, 0.01000000
5496, 0.03333333, 0.03166667, 0.01000000
5497, 0.03500000, 0.03166667, 0.01000000
5498, 0.03666667, 0.03166667, 0.01000000
5499, 0.03833333, 0.03166667, 0.01000000
5500, 0.04000000, 0.03166667, 0.01000000
5501, 0.00000000, 0.03333333, 0.01000000
5502, 0.00166667, 0.03333333, 0.01000000
5503, 0.00333333, 0.03333333, 0.01000000
5504, 0.00500000, 0.03333333, 0.01000000
5505, 0.00666667, 0.03333333, 0.01000000
5506, 0.00833333, 0.03333333, 0.01000000
5507, 0.01000000, 0.03333333, 0.01000000
5508, 0.01166667, 0.03333333, 0.01000000
5509, 0.01333333, 0.03333333, 0.01000000
5510, 0.01500000, 0.03333333, 0.01000000
5511, 0.01666667, 0.03333333, 0.01000000
5512, 0.01833333, 0.03333333, 0.01000000
5513, 0.02000000, 0.03333333, 0.01000000
5514, 0.02166667, 0.03333333, 0.01000000
5515, 0.02333333, 0.03333333, 0.01000000
5516, 0.02500000, 0.03333333, 0.01000000
5517, 0.02666667, 0.03333333, 0.01000000
5518, 0.02833333, 0.03333333, 0.01000000
5519, 0.03000000, 0.03333333, 0.01000000
5520, 0.03166667, 0.03333333, 0.01000000
5521, 0.03333333, 0.03333333, 0.01000000
5522, 0.03500000, 0.03333333, 0.01000000
5523, 0.03666667, 0.03333333, 0.01000000
5524, 0.03833333, 0.03333333, 0.01000000
5525, 0.04000000, 0.03333333, 0.01000000
5526, 0.00000000, 0.03500000, 0.01000000
5527, 0.00166667, 0.03500000, 0.01000000
5528, 0.00333333, 0.03500000, 0.01000000
5529, 0.00500000, 0.03500000, 0.01000000
5530, 0.00666667, 0.03500000, 0.01000000
5531, 0.00833333, 0.03500000, 0.01000000
5532, 0.01000000, 0.03500000, 0.01000000
5533, 0.01166667, 0.03500000, 0.01000000
5534, 0.01333333, 0.03500000, 0.01000000
5535, 0.01500000, 0.03500000, 0.01000000
5536, 0.01666667, 0.03500000, 0.01000000
5537, 0.01833333, 0.03500000, 0.01000000
5538, 0.02000000, 0.03500000, 0.01000000
5539, 0.02166667, 0.03500000, 0.01000000
5540, 0.02333333, 0.03500000, 0.01000000
5541, 0.02500000, 0.03500000, 0.01000000
5542, 0.02666667, 0.03500000, 0.01000000
5543, 0.02833333, 0.03500000, 0.01000000
5544, 0.03000000, 0.03500000, 0.01000000
5545, 0.03166667, 0.03500000, 0.01000000
5546, 0.03333333, 0.03500000, 0.01000000
5547, 0.03500000, 0.03500000, 0.01000000
5548, 0.03666667, 0.03500000, 0.01000000
5549, 0.03833333, 0.03500000, 0.01000000
5550, 0.04000000, 0.03500000, 0.01000000
5551, 0.00000000, 0.03666667, 0.01000000
5552, 0.00166667, 0.03666667, 0.01000000
5553, 0.00333333, 0.03666667, 0.01000000
5554, 0.00500000, 0.03666667, 0.01000000
5555, 0.00666667, 0.03666667, 0.01000000
5556, 0.00833333, 0.03666667, 0.01000000
5557, 0.01000000, 0.03666667, 0.01000000
5558, 0.01166667, 0.03666667, 0.01000000
5559, 0.01333333, 0.03666667, 0.01000000
5560, 0.01500000, 0.03666667, 0.01000000
5561, 0.01666667, 0.03666667, 0.01000000
5562, 0.01833333, 0.03666667, 0.01000000
5563, 0.02000000, 0.03666667, 0.01000000
5564, 0.02166667, 0.03666667, 0.01000000
5565, 0.02333333, 0.03666667, 0.01000000
5566, 0.02500000, 0.03666667, 0.01000000
5567, 0.02666667, 0.03666667, 0.01000000
5568, 0.02833333, 0.03666667, 0.01000000
5569, 0.03000000, 0.03666667, 0.01000000
5570, 0.03166667, 0.03666667, 0.01000000
5571, 0.03333333, 0.03666667, 0.01000000
5572, 0.03500000, 0.03666667, 0.01000000
5573, 0.03666667, 0.03666667, 0.01000000
5574, 0.03833333, 0.03666667, 0.01000000
5575, 0.04000000, 0.03666667, 0.01000000
5576, 0.00000000, 0.03833333, 0.01000000
5577, 0.00166667, 0.03833333, 0.01000000
5578, 0.00333333, 0.03833333, 0.01000000
5579, 0.00500000, 0.03833333, 0.01000000
5580, 0.00666667, 0.03833333, 0.01000000
5581, 0.00833333, 0.03833333, 0.01000000
5582, 0.01000000, 0.03833333, 0.01000000
5583, 0.01166667, 0.03833333, 0.01000000
5584, 0.01333333, 0.03833333, 0.01000000
5585, 0.01500000, 0.03833333, 0.01000000
5586, 0.01666667, 0.03833333, 0.01000000
5587, 0.01833333, 0.03833333, 0.01000000
5588, 0.02000000, 0.03833333, 0.01000000
5589, 0.02166667, 0.03833333, 0.01000000
5590, 0.02333333, 0.03833333, 0.01000000
5591, 0.02500000, 0.03833333, 0.01000000
5592, 0.02666667, 0.03833333, 0.01000000
5593, 0.02833333, 0.03833333, 0.01000000
5594, 0.03000000, 0.03833333, 0.01000000
5595, 0.03166667, 0.03833333, 0.01000000
5596, 0.03333333, 0.03833333, 0.01000000
5597, 0.03500000, 0.03833333, 0.01000000
5598, 0.03666667, 0.03833333, 0.01000000
5599, 0.03833333, 0.03833333, 0.01000000
5600, 0.04000000, 0.03833333, 0.01000000
5601, 0.00000000, 0.04000000, 0.01000000
5602, 0.00166667, 0.04000000, 0.01000000
5603, 0.00333333, 0.04000000, 0.01000000
5604, 0.00500000, 0.04000000, 0.01000000
5605, 0.00666667, 0.04000000, 0.01000000
5606, 0.00833333, 0.04000000, 0.01000000
5607, 0.01000000, 0.04000000, 0.01000000
5608, 0.01166667, 0.04000000, 0.01000000
5609, 0.01333333, 0.04000000, 0.01000000
5610, 0.01500000, 0.04000000, 0.01000000
5611, 0.01666667, 0.04000000, 0.01000000
5612, 0.01833333, 0.04000000, 0.01000000
5613, 0.02000000, 0.04000000, 0.01000000
5614, 0.02166667, 0.04000000, 0.01000000
5615, 0.02333333, 0.04000000, 0.01000000
5616, 0.02500000, 0.04000000, 0.01000000
5617, 0.02666667, 0.04000000, 0.01000000
5618, 0.02833333, 0.04000000, 0.01000000
5619, 0.03000000, 0.04000000, 0.01000000
5620, 0.03166667, 0.04000000, 0.01000000
5621, 0.03333333, 0.04000000, 0.01000000
5622, 0.03500000, 0.04000000, 0.01000000
5623, 0.03666667, 0.04000000, 0.01000000
5624, 0.03833333, 0.04000000, 0.01000000
5625, 0.04000000, 0.04000000, 0.01000000
*ELEMENT, TYPE=C3D8I
1, 1, 2, 27, 26, 626, 627, 652, 651
2, 2, 3, 28, 27, 627, 628, 653, 652
3, 3, 4, 29, 28, 628, 629, 654, 653
4, 4, 5, 30, 29, 629, 630, 655, 654
5, 5, 6, 31, 30, 630, 631, 656, 655
6, 6, 7, 32, 31, 631, 632, 657, 656
7, 7, 8, 33, 32, 632, 633, 658, 657
8, 8, 9, 34, 33, 633, 634, 659, 658
9, 9, 10, 35, 34, 634, 635, 660, 659
10, 10, 11, 36, 35, 635, 636, 661, 660
11, 11, 12, 37, 36, 636, 637, 662, 661
12, 12, 13, 38, 37, 637, 638, 663, 662
13, 13, 14, 39, 38, 638, 639, 664, 663
14, 14, 15, 40, 39, 639, 640, 665, 664
15, 15, 16, 41, 40, 640, 641, 666, 665
16, 16, 17, 42, 41, 641, 642, 667, 666
17, 17, 18, 43, 42, 642, 643, 668, 667
18, 18, 19, 44, 43, 643, 644, 669, 668
19, 19, 20, 45, 44, 644, 645, 670, 669
20, 20, 21, 46, 45, 645, 646, 671, 670
21, 21, 22, 47, 46, 646, 647, 672, 671
22, 22, 23, 48, 47, 647, 648, 673, 672
23, 23, 24, 49, 48, 648, 649, 674, 673
24, 24, 25, 50, 49, 649, 650, 675, 674
25, 26, 27, 52, 51, 651, 652, 677, 676
26, 27, 28, 53, 52, 652, 653, 678, 677
27, 28, 29, 54, 53, 653, 654, 679, 678
28, 29, 30, 55, 54, 654, 655, 680, 679
29, 30, 31, 56, 55, 655, 656, 681, 680
30, 31, 32, 57, 56, 656, 657, 682, 681
31, 32, 33, 58, 57, 657, 658, 683, 682
32, 33, 34, 59, 58, 658, 659, 684, 683
33, 34, 35, 60, 59, 659, 660, 685, 684
34, 35, 36, 61, 60, 660, 661, 686, 685
35, 36, 37, 62, 61, 661, 662, 687, 686
36, 37, 38, 63, 62, 662, 663, 688, 687
37, 38, 39, 64, 63, 663, 664, 689, 688
38, 39, 40, 65, 64, 664, 665, 690, 689
39, 40, 41, 66, 65, 665, 666, 691, 690
40, 41, 42, 67, 66, 666, 667, 692, 691
41, 42, 43, 68, 67, 667, 668, 693, 692
42, 43, 44, 69, 68, 668, 669, 694, 693
43, 44, 45, 70, 69, 669, 670, 695, 694
44, 45, 46, 71, 70, 670, 671, 696, 695
45, 46, 47, 72, 71, 671, 672, 697, 696
46, 47, 48, 73, 72, 672, 673, 698, 697
47, 48, 49, 74, 73, 673, 674, 699, 698
48, 49, 50, 75, 74, 674, 675, 700, 699
49, 51, 52, 77, 76, 676, 677, 702, 701
50, 52, 53, 78, 77, 677, 678, 703, 702
51, 53, 54, 79, 78, 678, 679, 704, 703
52, 54, 55, 80, 79, 679, 680, 705, 704
53, 55, 56, 81, 80, 680, 681, 706, 705
54, 56, 57, 82, 81, 681, 682, 707, 706
55, 57, 58, 83, 82, 682, 683, 708, 707
56, 58, 59, 84, 83, 683, 684, 709, 708
57, 59, 60, 85, 84, 684, 685, 710, 709
58, 60, 61, 86, 85, 685, 686, 711, 710
59, 61, 62, 87, 86, 686, 687, 712, 711
60, 62, 63, 88, 87, 687, 688, 713, 712
61, 63, 64, 89, 88, 688, 689, 714, 713
62, 64, 65, 90, 89, 689, 690, 715, 714
63, 65, 66, 91, 90, 690, 691, 716, 715
64, 66, 67, 92, 91, 691, 692, 717, 716
65, 67, 68, 93, 92, 692, 693, 718, 717
66, 68, 69, 94, 93, 693, 694, 719, 718
67, 69, 70, 95, 94, 694, 695, 720, 719
68, 70, 71, 96, 95, 695, 696, 721, 720
69, 71, 72, 97, 96, 696, 697, 722, 721
70, 72, 73, 98, 97, 697, 698, 723, 722
71, 73, 74, 99, 98, 698, 699, 724, 723
72, 74, 75, 100, 99, 699, 700, 725, 724
73, 76, 77, 102, 101, 701, 702, 727, 726
74, 77, 78, 103, 102, 702, 703, 728, 727
75, 78, 79, 104, 103, 703, 704, 729, 728
76, 79, 80, 105, 104, 704, 705, 730, 729
77, 80, 81, 106, 105, 705, 706, 731, 730
78, 81, 82, 107, 106, 706, 707, 732, 731
79, 82, 83, 108, 107, 707, 708, 733, 732
80, 83, 84, 109, 108, 708, 709, 734, 733
81, 84, 85, 110, 109, 709, 710, 735, 734
82, 85, 86, 111, 110, 710, 711, 736, 735
83, 86, 87, 112, 111, 711, 712, 737, 736
84, 87, 88, 113, 112, 712, 713, 738, 737
85, 88, 89, 114, 113, 713, 714, 739, 738
86, 89, 90, 115, 114, 714, 715, 740, 739
87, 90, 91, 116, 115, 715, 716, 741, 740
88, 91, 92, 117, 116, 716, 717, 742, 741
89, 92, 93, 118, 117, 717, 718, 743, 742
90, 93, 94, 119, 118, 718, 719, 744, 743
91, 94, 95, 120, 119, 719, 720, 745, 744
92, 95, 96, 121, 120, 720, 721, 746, 745
93, 96, 97, 122, 121, 721, 722, 747, 746
94, 97, 98, 123, 122, 722, 723, 748, 747
95, 98, 99, 124, 123, 723, 724, 749, 748
96, 99, 100, 125, 124, 724, 725, 750, 749
97, 101, 102, 127, 126, 726, 727, 752, 751
98, 102, 103, 128, 127, 727, 728, 753, 752
99, 103, 104, 129, 128, 728, 729, 754, 753
100, 104, 105, 130, 129, 729, 730, 755, 754
101, 105, 106, 131, 130, 730, 731, 756, 755
102, 106, 107, 132, 131, 731, 732, 757, 756
103, 107, 108, 133, 132, 732, 733, 758, 757
104, 108, 109, 134, 133, 733, 734, 759, 758
105, 109, 110, 135, 134, 734, 735, 760, 759
106, 110, 111, 136, 135, 735, 736, 761, 760
107, 111, 112, 137, 136, 736, 737, 762, 761
108, 112, 113, 138, 137, 737, 738, 763, 762
109, 113, 114, 139, 138, 738, 739, 764, 763
110, 114, 115, 140, 139, 739, 740, 765, 764
111, 115, 116, 141, 140, 740, 741, 766, 765
112, 116, 117, 142, 141, 741, 742, 767, 766
113, 117, 118, 143, 142, 742, 743, 768, 767
114, 118, 119, 144, 143, 743, 744, 769, 768
115, 119, 120, 145, 144, 744, 745, 770, 769
116, 120, 121, 146, 145, 745, 746, 771, 770
117, 121, 122, 147, 146, 746, 747, 772, 771
118, 122, 123, 148, 147, 747, 748, 773, 772
119, 123, 124, 149, 148, 748, 749, 774, 773
120, 124, 125, 150, 149, 749, 750, 775, 774
121, 126, 127, 152, 151, 751, 752, 777, 776
122, 127, 128, 153, 152, 752, 753, 778, 777
123, 128, 129, 154, 153, 753, 754, 779, 778
124, 129, 130, 155, 154, 754, 755, 780, 779
125, 130, 131, 156, 155, 755, 756, 781, 780
126, 131, 132, 157, 156, 756, 757, 782, 781
127, 132, 133, 158, 157, 757, 758, 783, 782
128, 133, 134, 159, 158, 758, 759, 784, 783
129, 134, 135, 160, 159, 759, 760, 785, 784
130, 135, 136, 161, 160, 760, 761, 786, 785
131, 136, 137, 162, 161, 761, 762, 787, 786
132, 137, 138, 163, 162, 762, 763, 788, 787
133, 138, 139, 164, 163, 763, 764, 789, 788
134, 139, 140, 165, 164, 764, 765, 790, 789
135, 140, 141, 166, 165, 765, 766, 791, 790
136, 141, 142, 167, 166, 766, 767, 792, 791
137, 142, 143, 168, 167, 767, 768, 793, 792
138, 143, 144, 169, 168, 768, 769, 794, 793
139, 144, 145, 170, 169, 769, 770, 795, 794
140, 145, 146, 171, 170, 770, 771, 796, 795
141, 146, 147, 172, 171, 771, 772, 797, 796
142, 147, 148, 173, 172, 772, 773, 798, 797
143, 148, 149, 174, 173, 773, 774, 799, 798
144, 149, 150, 175, 174, 774, 775, 800, 799
145, 151, 152, 177, 176, 776, 777, 802, 801
146, 152, 153, 178, 177, 777, 778, 803, 802
147, 153, 154, 179, 178, 778, 779, 804, 803
148, 154, 155, 180, 179, 779, 780, 805, 804
149, 155, 156, 181, 180, 780, 781, 806, 805
150, 156, 157, 182, 181, 781, 782, 807, 806
151, 157, 158, 183, 182, 782, 783, 808, 807
152, 158, 159, 184, 183, 783, 784, 809, 808
153, 159, 160, 185, 184, 784, 785, 810, 809
154, 160, 161, 186, 185, 785, 786, 811, 810
155, 161, 162, 187, 186, 786, 787, 812, 811
156, 162, 163, 188, 187, 787, 788, 813, 812
157, 163, 164, 189, 188, 788, 789, 814, 813
158, 164, 165, 190, 189, 789, 790, 815, 814
159, 165, 166, 191, 190, 790, 791, 816, 815
160, 166, 167, 192, 191, 791, 792, 817, 816
161, 167, 168, 193, 192, 792, 793, 818, 817
162, 168, 169, 194, 193, 793, 794, 819, 818
163, 169, 170, 195, 194, 794, 795, 820, 819
164, 170, 171, 196, 195, 795, 796, 821, 820
165, 171, 172, 197, 196, 796, 797, 822, 821
166, 172, 173, 198, 197, 797, 798, 823, 822
167, 173, 174, 199, 198, 798, 799, 824, 823
168, 174, 175, 200, 199, 799, 800, 825, 824
169, 176, 177, 202, 201, 801, 802, 827, 826
170, 177, 178, 203, 202, 802, 803, 828, 827
171, 178, 179, 204, 203, 803, 804, 829, 828
172, 179, 180, 205, 204, 804, 805, 830, 829
173, 180, 181, 206, 205, 805, 806, 831, 830
174, 181, 182, 207, 206, 806, 807, 832, 831
175, 182, 183, 208, 207, 807, 808, 833, 832
176, 183, 184, 209, 208, 808, 809, 834, 833
177, 184, 185, 210, 209, 809, 810, 835, 834
178, 185, 186, 211, 210, 810, 811, 836, 835
179, 186, 187, 212, 211, 811, 812, 837, 836
180, 187, 188, 213, 212, 812, 813, 838, 837
181, 188, 189, 214, 213, 813, 814, 839, 838
182, 189, 190, 215, 214, 814, 815, 840, 839
183, 190, 191, 216, 215, 815, 816, 841, 840
184, 191, 192, 217, 216, 816, 817, 842, 841
185, 192, 193, 218, 217, 817, 818, 843, 842
186, 193, 194, 219, 218, 818, 819, 844, 843
187, 194, 195, 220, 219, 819, 820, 845, 844
188, 195, 196, 221, 220, 820, 821, 846, 845
189, 196, 197, 222, 221, 821, 822, 847, 846
190, 197, 198, 223, 222, 822, 823, 848, 847
191, 198, 199, 224, 223, 823, 824, 849, 848
192, 199, 200, 225, 224, 824, 825, 850, 849
193, 201, 202, 227, 226, 826, 827, 852, 851
194, 202, 203, 228, 227, 827, 828, 853, 852
195, 203, 204, 229, 228, 828, 829, 854, 853
196, 204, 205, 230, 229, 829, 830, 855, 854
197, 205, 206, 231, 230, 830, 831, 856, 855
198, 206, 207, 232, 231, 831, 832, 857, 856
199, 207, 208, 233, 232, 832, 833, 858, 857
200, 208, 209, 234, 233, 833, 834, 859, 858
201, 209, 210, 235, 234, 834, 835, 860, 859
202, 210, 211, 236, 235, 835, 836, 861, 860
203, 211, 212, 237, 236, 836, 837, 862, 861
204, 212, 213, 238, 237, 837, 838, 863, 862
205, 213, 214, 239, 238, 838, 839, 864, 863
206, 214, 215, 240, 239, 839, 840, 865, 864
207, 215, 216, 241, 240, 840, 841, 866, 865
208, 216, 217, 242, 241, 841, 842, 867, 866
209, 217, 218, 243, 242, 842, 843, 868, 867
210, 218, 219, 244, 243, 843, 844, 869, 868
211, 219, 220, 245, 244, 844, 845, 870, 869
212, 220, 221, 246, 245, 845, 846, 871, 870
213, 221, 222, 247, 246, 846, 847, 872, 871
214, 222, 223, 248, 247, 847, 848, 873, 872
215, 223, 224, 249, 248, 848, 849, 874, 873
216, 224, 225, 250, 249, 849, 850, 875, 874
217, 226, 227, 252, 251, 851, 852, 877, 876
218, 227, 228, 253, 252, 852, 853, 878, 877
219, 228, 229, 254, 253, 853, 854, 879, 878
220, 229, 230, 255, 254, 854, 855, 880, 879
221, 230, 231, 256, 255, 855, 856, 881, 880
222, 231, 232, 257, 256, 856, 857, 882, 881
223, 232, 233, 258, 257, 857, 858, 883, 882
224, 233, 234, 259, 258, 858, 859, 884, 883
225, 234, 235, 260, 259, 859, 860, 885, 884
226, 235, 236, 261, 260, 860, 861, 886, 885
227, 236, 237, 262, 261, 861, 862, 887, 886
228, 237, 238, 263, 262, 862, 863, 888, 887
229, 238, 239, 264, 263, 863, 864, 889, 888
230, 239, 240, 265, 264, 864, 865, 890, 889
231, 240, 241, 266, 265, 865, 866, 891, 890
232, 241, 242, 267, 266, 866, 867, 892, 891
233, 242, 243, 268, 267, 867, 868, 893, 892
234, 243, 244, 269, 268, 868, 869, 894, 893
235, 244, 245, 270, 269, 869, 870, 895, 894
236, 245, 246, 271, 270, 870, 871, 896, 895
237, 246, 247, 272, 271, 871, 872, 897, 896
238, 247, 248, 273, 272, 872, 873, 898, 897
239, 248, 249, 274, 273, 873, 874, 899, 898
240, 249, 250, 275, 274, 874, 875, 900, 899
241, 251, 252, 277, 276, 876, 877, 902, 901
242, 252, 253, 278, 277, 877, 878, 903, 902
243, 253, 254, 279, 278, 878, 879, 904, 903
244, 254, 255, 280, 279, 879, 880, 905, 904
245, 255, 256, 281, 280, 880, 881, 906, 905
246, 256, 257, 282, 281, 881, 882, 907, 906
247, 257, 258, 283, 282, 882, 883, 908, 907
248, 258, 259, 284, 283, 883, 884, 909, 908
249, 259, 260, 285, 284, 884, 885, 910, 909
250, 260, 261, 286, 285, 885, 886, 911, 910
251, 261, 262, 287, 286, 886, 887, 912, 911
252, 262, 263, 288, 287, 887, 888, 913, 912
253, 263, 264, 289, 288, 888, 889, 914, 913
254, 264, 265, 290, 289, 889, 890, 915, 914
255, 265, 266, 291, 290, 890, 891, 916, 915
256, 266, 267, 292, 291, 891, 892, 917, 916
257, 267, 268, 293, 292, 892, 893, 918, 917
258, 268, 269, 294, 293, 893, 894, 919, 918
259, 269, 270, 295, 294, 894, 895, 920, 919
260, 270, 271, 296, 295, 895, 896, 921, 920
261, 271, 272, 297, 296, 896, 897, 922, 921
262, 272, 273, 298, 297, 897, 898, 923, 922
263, 273, 274, 299, 298, 898, 899, 924, 923
264, 274, 275, 300, 299, 899, 900, 925, 924
265, 276, 277, 302, 301, 901, 902, 927, 926
266, 277, 278, 303, 302, 902, 903, 928, 927
267, 278, 279, 304, 303, 903, 904, 929, 928
268, 279, 280, 305, 304, 904, 905, 930, 929
269, 280, 281, 306, 305, 905, 906, 931, 930
270, 281, 282, 307, 306, 906, 907, 932, 931
271, 282, 283, 308, 307, 907, 908, 933, 932
272, 283, 284, 309, 308, 908, 909, 934, 933
273, 284, 285, 310, 309, 909, 910, 935, 934
274, 285, 286, 311, 310, 910, 911, 936, 935
275, 286, 287, 312, 311, 911, 912, 937, 936
276, 287, 288, 313, 312, 912, 913, 938, 937
277, 288, 289, 314, 313, 913, 914, 939, 938
278, 289, 290, 315, 314, 914, 915, 940, 939
279, 290, 291, 316, 315, 915, 916, 941, 940
280, 291, 292, 317, 316, 916, 917, 942, 941
281, 292, 293, 318, 317, 917, 918, 943, 942
282, 293, 294, 319, 318, 918, 919, 944, 943
283, 294, 295, 320, 319, 919, 920, 945, 944
284, 295, 296, 321, 320, 920, 921, 946, 945
285, 296, 297, 322, 321, 921, 922, 947, 946
286, 297, 298, 323, 322, 922, 923, 948, 947
287, 298, 299, 324, 323, 923, 924, 949, 948
288, 299, 300, 325, 324, 924, 925, 950, 949
289, 301, 302, 327, 326, 926, 927, 952, 951
290, 302, 303, 328, 327, 927, 928, 953, 952
291, 303, 304, 329, 328, 928, 929, 954, 953
292, 304, 305, 330, 329, 929, 930, 955, 954
293, 305, 306, 331, 330, 930, 931, 956, 955
294, 306, 307, 332, 331, 931, 932, 957, 956
295, 307, 308, 333, 332, 932, 933, 958, 957
296, 308, 309, 334, 333, 933, 934, 959, 958
297, 309, 310, 335, 334, 934, 935, 960, 959
298, 310, 311, 336, 335, 935, 936, 961, 960
299, 311, 312, 337, 336, 936, 937, 962, 961
300, 312, 313, 338, 337, 937, 938, 963, 962
301, 313, 314, 339, 338, 938, 939, 964, 963
302, 314, 315, 340, 339, 939, 940, 965, 964
303, 315, 316, 341, 340, 940, 941, 966, 965
304, 316, 317, 342, 341, 941, 942, 967, 966
305, 317, 318, 343, 342, 942, 943, 968, 967
306, 318, 319, 344, 343, 943, 944, 969, 968
307, 319, 320, 345, 344, 944, 945, 970, 969
308, 320, 321, 346, 345, 945, 946, 971, 970
309, 321, 322, 347, 346, 946, 947, 972, 971
310, 322, 323, 348, 347, 947, 948, 973, 972
311, 323, 324, 349, 348, 948, 949, 974, 973
312, 324, 325, 350, 349, 949, 950, 975, 974
313, 326, 327, 352, 351, 951, 952, 977, 976
314, 327, 328, 353, 352, 952, 953, 978, 977
315, 328, 329, 354, 353, 953, 954, 979, 978
316, 329, 330, 355, 354, 954, 955, 980, 979
317, 330, 331, 356, 355, 955, 956, 981, 980
318, 331, 332, 357, 356, 956, 957, 982, 981
319, 332, 333, 358, 357, 957, 958, 983, 982
320, 333, 334, 359, 358, 958, 959, 984, 983
321, 334, 335, 360, 359, 959, 960, 985, 984
322, 335, 336, 361, 360, 960, 961, 986, 985
323, 336, 337, 362, 361, 961, 962, 987, 986
324, 337, 338, 363, 362, 962, 963, 988, 987
325, 338, 339, 364, 363, 963, 964, 989, 988
326, 339, 340, 365, 364, 964, 965, 990, 989
327, 340, 341, 366, 365, 965, 966, 991, 990
328, 341, 342, 367, 366, 966, 967, 992, 991
329, 342, 343, 368, 367, 967, 968, 993, 992
330, 343, 344, 369, 368, 968, 969, 994, 993
331, 344, 345, 370, 369, 969, 970, 995, 994
332, 345, 346, 371, 370, 970, 971, 996, 995
333, 346, 347, 372, 371, 971, 972, 997, 996
334, 347, 348, 373, 372, 972, 973, 998, 997
335, 348, 349, 374, 373, 973, 974, 999, 998
336, 349, 350, 375, 374, 974, 975, 1000, 999
337, 351, 352, 377, 376, 976, 977, 1002, 1001
338, 352, 353, 378, 377, 977, 978, 1003, 1002
339, 353, 354, 379, 378, 978, 979, 1004, 1003
340, 354, 355, 380, 379, 979, 980, 1005, 1004
341, 355, 356, 381, 380, 980, 981, 1006, 1005
342, 356, 357, 382, 381, 981, 982, 1007, 1006
343, 357, 358, 383, 382, 982, 983, 1008, 1007
344, 358, 359, 384, 383, 983, 984, 1009, 1008
345, 359, 360, 385, 384, 984, 985, 1010, 1009
346, 360, 361, 386, 385, 985, 986, 1011, 1010
347, 361, 362, 387, 386, 986, 987, 1012, 1011
348, 362, 363, 388, 387, 987, 988, 1013, 1012
349, 363, 364, 389, 388, 988, 989, 1014, 1013
350, 364, 365, 390, 389, 989, 990, 1015, 1014
351, 365, 366, 391, 390, 990, 991, 1016, 1015
352, 366, 367, 392, 391, 991, 992, 1017, 1016
353, 367, 368, 393, 392, 992, 993, 1018, 1017
354, 368, 369, 394, 393, 993, 994, 1019, 1018
355, 369, 370, 395, 394, 994, 995, 1020, 1019
356, 370, 371, 396, 395, 995, 996, 1021, 1020
357, 371, 372, 397, 396, 996, 997, 1022, 1021
358, 372, 373, 398, 397, 997, 998, 1023, 1022
359, 373, 374, 399, 398, 998, 999, 1024, 1023
360, 374, 375, 400, 399, 999, 1000, 1025, 1024
361, 376, 377, 402, 401, 1001, 1002, 1027, 1026
362, 377, 378, 403, 402, 1002, 1003, 1028, 1027
363, 378, 379, 404, 403, 1003, 1004, 1029, 1028
364, 379, 380, 405, 404, 1004, 1005, 1030, 1029
365, 380, 381, 406, 405, 1005, 1006, 1031, 1030
366, 381, 382, 407, 406, 1006, 1007, 1032, 1031
367, 382, 383, 408, 407, 1007, 1008, 1033, 1032
368, 383, 384, 409, 408, 1008, 1009, 1034, 1033
369, 384, 385, 410, 409, 1009, 1010, 1035, 1034
370, 385, 386, 411, 410, 1010, 1011, 1036, 1035
371, 386, 387, 412, 411, 1011, 1012, 1037, 1036
372, 387, 388, 413, 412, 1012, 1013, 1038, 1037
373, 388, 389, 414, 413, 1013, 1014, 1039, 1038
374, 389, 390, 415, 414, 1014, 1015, 1040, 1039
375, 390, 391, 416, 415, 1015, 1016, 1041, 1040
376, 391, 392, 417, 416, 1016, 1017, 1042, 1041
377, 392, 393, 418, 417, 1017, 1018, 1043, 1042
378, 393, 394, 419, 418, 1018, 1019, 1044, 1043
379, 394, 395, 420, 419, 1019, 1020, 1045, 1044
380, 395, 396, 421, 420, 1020, 1021, 1046, 1045
381, 396, 397, 422, 421, 1021, 1022, 1047, 1046
382, 397, 398, 423, 422, 1022, 1023, 1048, 1047
383, 398, 399, 424, 423, 1023, 1024, 1049, 1048
384, 399, 400, 425, 424, 1024, 1025, 1050, 1049
385, 401, 402, 427, 426, 1026, 1027, 1052, 1051
386, 402, 403, 428, 427, 1027, 1028, 1053, 1052
387, 403, 404, 429, 428, 1028, 1029, 1054, 1053
388, 404, 405, 430, 429, 1029, 1030, 1055, 1054
389, 405, 406, 431, 430, 1030, 1031, 1056, 1055
390, 406, 407, 432, 431, 1031, 1032, 1057, 1056
391, 407, 408, 433, 432, 1032, 1033, 1058, 1057
392, 408, 409, 434, 433, 1033, 1034, 1059, 1058
393, 409, 410, 435, 434, 1034, 1035, 1060, 1059
394, 410, 411, 436, 435, 1035, 1036, 1061, 1060
395, 411, 412, 437, 436, 1036, 1037, 1062, 1061
396, 412, 413, 438, 437, 1037, 1038, 1063, 1062
397, 413, 414, 439, 438, 1038, 1039, 1064, 1063
398, 414, 415, 440, 439, 1039, 1040, 1065, 1064
399, 415, 416, 441, 440, 1040, 1041, 1066, 1065
400, 416, 417, 442, 441, 1041, 1042, 1067, 1066
401, 417, 418, 443, 442, 1042, 1043, 1068, 1067
402, 418, 419, 444, 443, 1043, 1044, 1069, 1068
403, 419, 420, 445, 444, 1044, 1045, 1070, 1069
404, 420, 421, 446, 445, 1045, 1046, 1071, 1070
405, 421, 422, 447, 446, 1046, 1047, 1072, 1071
406, 422, 423, 448, 447, 1047, 1048, 1073, 1072
407, 423, 424, 449, 448, 1048, 1049, 1074, 1073
408, 424, 425, 450, 449, 1049, 1050, 1075, 1074
409, 426, 427, 452, 451, 1051, 1052, 1077, 1076
410, 427, 428, 453, 452, 1052, 1053, 1078, 1077
411, 428, 429, 454, 453, 1053, 1054, 1079, 1078
412, 429, 430, 455, 454, 1054, 1055, 1080, 1079
413, 430, 431, 456, 455, 1055, 1056, 1081, 1080
414, 431, 432, 457, 456, 1056, 1057, 1082, 1081
415, 432, 433, 458, 457, 1057, 1058, 1083, 1082
416, 433, 434, 459, 458, 1058, 1059, 1084, 1083
417, 434, 435, 460, 459, 1059, 1060, 1085, 1084
418, 435, 436, 461, 460, 1060, 1061, 1086, 1085
419, 436, 437, 462, 461, 1061, 1062, 1087, 1086
420, 437, 438, 463, 462, 1062, 1063, 1088, 1087
421, 438, 439, 464, 463, 1063, 1064, 1089, 1088
422, 439, 440, 465, 464, 1064, 1065, 1090, 1089
423, 440, 441, 466, 465, 1065, 1066, 1091, 1090
424, 441, 442, 467, 466, 1066, 1067, 1092, 1091
425, 442, 443, 468, 467, 1067, 1068, 1093, 1092
426, 443, 444, 469, 468, 1068, 1069, 1094, 1093
427, 444, 445, 470, 469, 1069, 1070, 1095, 1094
428, 445, 446, 471, 470, 1070, 1071, 1096, 1095
429, 446, 447, 472, 471, 1071, 1072, 1097, 1096
430, 447, 448, 473, 472, 1072, 1073, 1098, 1097
431, 448, 449, 474, 473, 1073, 1074, 1099, 1098
432, 449, 450, 475, 474, 1074, 1075, 1100, 1099
433, 451, 452, 477, 476, 1076, 1077, 1102, 1101
434, 452, 453, 478, 477, 1077, 1078, 1103, 1102
435, 453, 454, 479, 478, 1078, 1079, 1104, 1103
436, 454, 455, 480, 479, 1079, 1080, 1105, 1104
437, 455, 456, 481, 480, 1080, 1081, 1106, 1105
438, 456, 457, 482, 481, 1081, 1082, 1107, 1106
439, 457, 458, 483, 482, 1082, 1083, 1108, 1107
440, 458, 459, 484, 483, 1083, 1084, 1109, 1108
441, 459, 460, 485, 484, 1084, 1085, 1110, 1109
442, 460, 461, 486, 485, 1085, 1086, 1111, 1110
443, 461, 462, 487, 486, 1086, 1087, 1112, 1111
444, 462, 463, 488, 487, 1087, 1088, 1113, 1112
445, 463, 464, 489, 488, 1088, 1089, 1114, 1113
446, 464, 465, 490, 489, 1089, 1090, 1115, 1114
447, 465, 466, 491, 490, 1090, 1091, 1116, 1115
448, 466, 467, 492, 491, 1091, 1092, 1117, 1116
449, 467, 468, 493, 492, 1092, 1093, 1118, 1117
450, 468, 469, 494, 493, 1093, 1094, 1119, 1118
451, 469, 470, 495, 494, 1094, 1095, 1120, 1119
452, 470, 471, 496, 495, 1095, 1096, 1121, 1120
453, 471, 472, 497, 496, 1096, 1097, 1122, 1121
454, 472, 473, 498, 497, 1097, 1098, 1123, 1122
455, 473, 474, 499, 498, 1098, 1099, 1124, 1123
456, 474, 475, 500, 499, 1099, 1100, 1125, 1124
457, 476, 477, 502, 501, 1101, 1102, 1127, 1126
458, 477, 478, 503, 502, 1102, 1103, 1128, 1127
459, 478, 479, 504, 503, 1103, 1104, 1129, 1128
460, 479, 480, 505, 504, 1104, 1105, 1130, 1129
461, 480, 481, 506, 505, 1105, 1106, 1131, 1130
462, 481, 482, 507, 506, 1106, 1107, 1132, 1131
463, 482, 483, 508, 507, 1107, 1108, 1133, 1132
464, 483, 484, 509, 508, 1108, 1109, 1134, 1133
465, 484, 485, 510, 509, 1109, 1110, 1135, 1134
466, 485, 486, 511, 510, 1110, 1111, 1136, 1135
467, 486, 487, 512, 511, 1111, 1112, 1137, 1136
468, 487, 488, 513, 512, 1112, 1113, 1138, 1137
469, 488, 489, 514, 513, 1113, 1114, 1139, 1138
470, 489, 490, 515, 514, 1114, 1115, 1140, 1139
471, 490, 491, 516, 515, 1115, 1116, 1141, 1140
472, 491, 492, 517, 516, 1116, 1117, 1142, 1141
473, 492, 493, 518, 517, 1117, 1118, 1143, 1142
474, 493, 494, 519, 518, 1118, 1119, 1144, 1143
475, 494, 495, 520, 519, 1119, 1120, 1145, 1144
476, 495, 496, 521, 520, 1120, 1121, 1146, 1145
477, 496, 497, 522, 521, 1121, 1122, 1147, 1146
478, 497, 498, 523, 522, 1122, 1123, 1148, 1147
479, 498, 499, 524, 523, 1123, 1124, 1149, 1148
480, 499, 500, 525, 524, 1124, 1125, 1150, 1149
481, 501, 502, 527, 526, 1126, 1127, 1152, 1151
482, 502, 503, 528, 527, 1127, 1128, 1153, 1152
483, 503, 504, 529, 528, 1128, 1129, 1154, 1153
484, 504, 505, 530, 529, 1129, 1130, 1155, 1154
485, 505, 506, 531, 530, 1130, 1131, 1156, 1155
486, 506, 507, 532, 531, 1131, 1132, 1157, 1156
487, 507, 508, 533, 532, 1132, 1133, 1158, 1157
488, 508, 509, 534, 533, 1133, 1134, 1159, 1158
489, 509, 510, 535, 534, 1134, 1135, 1160, 1159
490, 510, 511, 536, 535, 1135, 1136, 1161, 1160
491, 511, 512, 537, 536, 1136, 1137, 1162, 1161
492, 512, 513, 538, 537, 1137, 1138, 1163, 1162
493, 513, 514, 539, 538, 1138, 1139, 1164, 1163
494, 514, 515, 540, 539, 1139, 1140, 1165, 1164
495, 515, 516, 541, 540, 1140, 1141, 1166, 1165
496, 516, 517, 542, 541, 1141, 1142, 1167, 1166
497, 517, 518, 543, 542, 1142, 1143, 1168, 1167
498, 518, 519, 544, 543, 1143, 1144, 1169, 1168
499, 519, 520, 545, 544, 1144, 1145, 1170, 1169
500, 520, 521, 546, 545, 1145, 1146, 1171, 1170
501, 521, 522, 547, 546, 1146, 1147, 1172, 1171
502, 522, 523, 548, 547, 1147, 1148, 1173, 1172
503, 523, 524, 549, 548, 1148, 1149, 1174, 1173
504, 524, 525, 550, 549, 1149, 1150, 1175, 1174
505, 526, 527, 552, 551, 1151, 1152, 1177, 1176
506, 527, 528, 553, 552, 1152, 1153, 1178, 1177
507, 528, 529, 554, 553, 1153, 1154, 1179, 1178
508, 529, 530, 555, 554, 1154, 1155, 1180, 1179
509, 530, 531, 556, 555, 1155, 1156, 1181, 1180
510, 531, 532, 557, 556, 1156, 1157, 1182, 1181
511, 532, 533, 558, 557, 1157, 1158, 1183, 1182
512, 533, 534, 559, 558, 1158, 1159, 1184, 1183
513, 534, 535, 560, 559, 1159, 1160, 1185, 1184
514, 535, 536, 561, 560, 1160, 1161, 1186, 1185
515, 536, 537, 562, 561, 1161, 1162, 1187, 1186
516, 537, 538, 563, 562, 1162, 1163, 1188, 1187
517, 538, 539, 564, 563, 1163, 1164, 1189, 1188
518, 539, 540, 565, 564, 1164, 1165, 1190, 1189
519, 540, 541, 566, 565, 1165, 1166, 1191, 1190
520, 541, 542, 567, 566, 1166, 1167, 1192, 1191
521, 542, 543, 568, 567, 1167, 1168, 1193, 1192
522, 543, 544, 569, 568, 1168, 1169, 1194, 1193
523, 544, 545, 570, 569, 1169, 1170, 1195, 1194
524, 545, 546, 571, 570, 1170, 1171, 1196, 1195
525, 546, 547, 572, 571, 1171, 1172, 1197, 1196
526, 547, 548, 573, 572, 1172, 1173, 1198, 1197
527, 548, 549, 574, 573, 1173, 1174, 1199, 1198
528, 549, 550, 575, 574, 1174, 1175, 1200, 1199
529, 551, 552, 577, 576, 1176, 1177, 1202, 1201
530, 552, 553, 578, 577, 1177, 1178, 1203, 1202
531, 553, 554, 579, 578, 1178, 1179, 1204, 1203
532, 554, 555, 580, 579, 1179, 1180, 1205, 1204
533, 555, 556, 581, 580, 1180, 1181, 1206, 1205
534, 556, 557, 582, 581, 1181, 1182, 1207, 1206
535, 557, 558, 583, 582, 1182, 1183, 1208, 1207
536, 558, 559, 584, 583, 1183, 1184, 1209, 1208
537, 559, 560, 585, 584, 1184, 1185, 1210, 1209
538, 560, 561, 586, 585, 1185, 1186, 1211, 1210
539, 561, 562, 587, 586, 1186, 1187, 1212, 1211
540, 562, 563, 588, 587, 1187, 1188, 1213, 1212
541, 563, 564, 589, 588, 1188, 1189, 1214, 1213
542, 564, 565, 590, 589, 1189, 1190, 1215, 1214
543, 565, 566, 591, 590, 1190, 1191, 1216, 1215
544, 566, 567, 592, 591, 1191, 1192, 1217, 1216
545, 567, 568, 593, 592, 1192, 1193, 1218, 1217
546, 568, 569, 594, 593, 1193, 1194, 1219, 1218
547, 569, 570, 595, 594, 1194, 1195, 1220, 1219
548, 570, 571, 596, 595, 1195, 1196, 1221, 1220
549, 571, 572, 597, 596, 1196, 1197, 1222, 1221
550, 572, 573, 598, 597, 1197, 1198, 1223, 1222
551, 573, 574, 599, 598, 1198, 1199, 1224, 1223
552, 574, 575, 600, 599, 1199, 1200, 1225, 1224
553, 576, 577, 602, 601, 1201, 1202, 1227, 1226
554, 577, 578, 603, 602, 1202, 1203, 1228, 1227
555, 578, 579, 604, 603, 1203, 1204, 1229, 1228
556, 579, 580, 605, 604, 1204, 1205, 1230, 1229
557, 580, 581, 606, 605, 1205, 1206, 1231, 1230
558, 581, 582, 607, 606, 1206, 1207, 1232, 1231
559, 582, 583, 608, 607, 1207, 1208, 1233, 1232
560, 583, 584, 609, 608, 1208, 1209, 1234, 1233
561, 584, 585, 610, 609, 1209, 1210, 1235, 1234
562, 585, 586, 611, 610, 1210, 1211, 1236, 1235
563, 586, 587, 612, 611, 1211, 1212, 1237, 1236
564, 587, 588, 613, 612, 1212, 1213, 1238, 1237
565, 588, 589, 614, 613, 1213, 1214, 1239, 1238
566, 589, 590, 615, 614, 1214, 1215, 1240, 1239
567, 590, 591, 616, 615, 1215, 1216, 1241, 1240
568, 591, 592, 617, 616, 1216, 1217, 1242, 1241
569, 592, 593, 618, 617, 1217, 1218, 1243, 1242
570, 593, 594, 619, 618, 1218, 1219, 1244, 1243
571, 594, 595, 620, 619, 1219, 1220, 1245, 1244
572, 595, 596, 621, 620, 1220, 1221, 1246, 1245
573, 596, 597, 622, 621, 1221, 1222, 1247, 1246
574, 597, 598, 623, 622, 1222, 1223, 1248, 1247
575, 598, 599, 624, 623, 1223, 1224, 1249, 1248
576, 599, 600, 625, 624, 1224, 1225, 1250, 1249
577, 626, 627, 652, 651, 1251, 1252, 1277, 1276
578, 627, 628, 653, 652, 1252, 1253, 1278, 1277
579, 628, 629, 654, 653, 1253, 1254, 1279, 1278
580, 629, 630, 655, 654, 1254, 1255, 1280, 1279
581, 630, 631, 656, 655, 1255, 1256, 1281, 1280
582, 631, 632, 657, 656, 1256, 1257, 1282, 1281
583, 632, 633, 658, 657, 1257, 1258, 1283, 1282
584, 633, 634, 659, 658, 1258, 1259, 1284, 1283
585, 634, 635, 660, 659, 1259, 1260, 1285, 1284
586, 635, 636, 661, 660, 1260, 1261, 1286, 1285
587, 636, 637, 662, 661, 1261, 1262, 1287, 1286
588, 637, 638, 663, 662, 1262, 1263, 1288, 1287
589, 638, 639, 664, 663, 1263, 1264, 1289, 1288
590, 639, 640, 665, 664, 1264, 1265, 1290, 1289
591, 640, 641, 666, 665, 1265, 1266, 1291, 1290
592, 641, 642, 667, 666, 1266, 1267, 1292, 1291
593, 642, 643, 668, 667, 1267, 1268, 1293, 1292
594, 643, 644, 669, 668, 1268, 1269, 1294, 1293
595, 644, 645, 670, 669, 1269, 1270, 1295, 1294
596, 645, 646, 671, 670, 1270, 1271, 1296, 1295
597, 646, 647, 672, 671, 1271, 1272, 1297, 1296
598, 647, 648, 673, 672, 1272, 1273, 1298, 1297
599, 648, 649, 674, 673, 1273, 1274, 1299, 1298
600, 649, 650, 675, 674, 1274, 1275, 1300, 1299
601, 651, 652, 677, 676, 1276, 1277, 1302, 1301
602, 652, 653, 678, 677, 1277, 1278, 1303, 1302
603, 653, 654, 679, 678, 1278, 1279, 1304, 1303
604, 654, 655, 680, 679, 1279, 1280, 1305, 1304
605, 655, 656, 681, 680, 1280, 1281, 1306, 1305
606, 656, 657, 682, 681, 1281, 1282, 1307, 1306
607, 657, 658, 683, 682, 1282, 1283, 1308, 1307
608, 658, 659, 684, 683, 1283, 1284, 1309, 1308
609, 659, 660, 685, 684, 1284, 1285, 1310, 1309
610, 660, 661, 686, 685, 1285, 1286, 1311, 1310
611, 661, 662, 687, 686, 1286, 1287, 1312, 1311
612, 662, 663, 688, 687, 1287, 1288, 1313, 1312
613, 663, 664, 689, 688, 1288, 1289, 1314, 1313
614, 664, 665, 690, 689, 1289, 1290, 1315, 1314
615, 665, 666, 691, 690, 1290, 1291, 1316, 1315
616, 666, 667, 692, 691, 1291, 1292, 1317, 1316
617, 667, 668, 693, 692, 1292, 1293, 1318, 1317
618, 668, 669, 694, 693, 1293, 1294, 1319, 1318
619, 669, 670, 695, 694, 1294, 1295, 1320, 1319
620, 670, 671, 696, 695, 1295, 1296, 1321, 1320
621, 671, 672, 697, 696, 1296, 1297, 1322, 1321
622, 672, 673, 698, 697, 1297, 1298, 1323, 1322
623, 673, 674, 699, 698, 1298, 1299, 1324, 1323
624, 674, 675, 700, 699, 1299, 1300, 1325, 1324
625, 676, 677, 702, 701, 1301, 1302, 1327, 1326
626, 677, 678, 703, 702, 1302, 1303, 1328, 1327
627, 678, 679, 704, 703, 1303, 1304, 1329, 1328
628, 679, 680, 705, 704, 1304, 1305, 1330, 1329
629, 680, 681, 706, 705, 1305, 1306, 1331, 1330
630, 681, 682, 707, 706, 1306, 1307, 1332, 1331
631, 682, 683, 708, 707, 1307, 1308, 1333, 1332
632, 683, 684, 709, 708, 1308, 1309, 1334, 1333
633, 684, 685, 710, 709, 1309, 1310, 1335, 1334
634, 685, 686, 711, 710, 1310, 1311, 1336, 1335
635, 686, 687, 712, 711, 1311, 1312, 1337, 1336
636, 687, 688, 713, 712, 1312, 1313, 1338, 1337
637, 688, 689, 714, 713, 1313, 1314, 1339, 1338
638, 689, 690, 715, 714, 1314, 1315, 1340, 1339
639, 690, 691, 716, 715, 1315, 1316, 1341, 1340
640, 691, 692, 717, 716, 1316, 1317, 1342, 1341
641, 692, 693, 718, 717, 1317, 1318, 1343, 1342
642, 693, 694, 719, 718, 1318, 1319, 1344, 1343
643, 694, 695, 720, 719, 1319, 1320, 1345, 1344
644, 695, 696, 721, 720, 1320, 1321, 1346, 1345
645, 696, 697, 722, 721, 1321, 1322, 1347, 1346
646, 697, 698, 723, 722, 1322, 1323, 1348, 1347
647, 698, 699, 724, 723, 1323, 1324, 1349, 1348
648, 699, 700, 725, 724, 1324, 1325, 1350, 1349
649, 701, 702, 727, 726, 1326, 1327, 1352, 1351
650, 702, 703, 728, 727, 1327, 1328, 1353, 1352
651, 703, 704, 729, 728, 1328, 1329, 1354, 1353
652, 704, 705, 730, 729, 1329, 1330, 1355, 1354
653, 705, 706, 731, 730, 1330, 1331, 1356, 1355
654, 706, 707, 732, 731, 1331, 1332, 1357, 1356
655, 707, 708, 733, 732, 1332, 1333, 1358, 1357
656, 708, 709, 734, 733, 1333, 1334, 1359, 1358
657, 709, 710, 735, 734, 1334, 1335, 1360, 1359
658, 710, 711, 736, 735, 1335, 1336, 1361, 1360
659, 711, 712, 737, 736, 1336, 1337, 1362, 1361
660, 712, 713, 738, 737, 1337, 1338, 1363, 1362
661, 713, 714, 739, 738, 1338, 1339, 1364, 1363
662, 714, 715, 740, 739, 1339, 1340, 1365, 1364
663, 715, 716, 741, 740, 1340, 1341, 1366, 1365
664, 716, 717, 742, 741, 1341, 1342, 1367, 1366
665, 717, 718, 743, 742, 1342, 1343, 1368, 1367
666, 718, 719, 744, 743, 1343, 1344, 1369, 1368
667, 719, 720, 745, 744, 1344, 1345, 1370, 1369
668, 720, 721, 746, 745, 1345, 1346, 1371, 1370
669, 721, 722, 747, 746, 1346, 1347, 1372, 1371
670, 722, 723, 748, 747, 1347, 1348, 1373, 1372
671, 723, 724, 749, 748, 1348, 1349, 1374, 1373
672, 724, 725, 750, 749, 1349, 1350, 1375, 1374
673, 726, 727, 752, 751, 1351, 1352, 1377, 1376
674, 727, 728, 753, 752, 1352, 1353, 1378, 1377
675, 728, 729, 754, 753, 1353, 1354, 1379, 1378
676, 729, 730, 755, 754, 1354, 1355, 1380, 1379
677, 730, 731, 756, 755, 1355, 1356, 1381, 1380
678, 731, 732, 757, 756, 1356, 1357, 1382, 1381
679, 732, 733, 758, 757, 1357, 1358, 1383, 1382
680, 733, 734, 759, 758, 1358, 1359, 1384, 1383
681, 734, 735, 760, 759, 1359, 1360, 1385, 1384
682, 735, 736, 761, 760, 1360, 1361, 1386, 1385
683, 736, 737, 762, 761, 1361, 1362, 1387, 1386
684, 737, 738, 763, 762, 1362, 1363, 1388, 1387
685, 738, 739, 764, 763, 1363, 1364, 1389, 1388
686, 739, 740, 765, 764, 1364, 1365, 1390, 1389
687, 740, 741, 766, 765, 1365, 1366, 1391, 1390
688, 741, 742, 767, 766, 1366, 1367, 1392, 1391
689, 742, 743, 768, 767, 1367, 1368, 1393, 1392
690, 743, 744, 769, 768, 1368, 1369, 1394, 1393
691, 744, 745, 770, 769, 1369, 1370, 1395, 1394
692, 745, 746, 771, 770, 1370, 1371, 1396, 1395
693, 746, 747, 772, 771, 1371, 1372, 1397, 1396
694, 747, 748, 773, 772, 1372, 1373, 1398, 1397
695, 748, 749, 774, 773, 1373, 1374, 1399, 1398
696, 749, 750, 775, 774, 1374, 1375, 1400, 1399
697, 751, 752, 777, 776, 1376, 1377, 1402, 1401
698, 752, 753, 778, 777, 1377, 1378, 1403, 1402
699, 753, 754, 779, 778, 1378, 1379, 1404, 1403
700, 754, 755, 780, 779, 1379, 1380, 1405, 1404
701, 755, 756, 781, 780, 1380, 1381, 1406, 1405
702, 756, 757, 782, 781, 1381, 1382, 1407, 1406
703, 757, 758, 783, 782, 1382, 1383, 1408, 1407
704, 758, 759, 784, 783, 1383, 1384, 1409, 1408
705, 759, 760, 785, 784, 1384, 1385, 1410, 1409
706, 760, 761, 786, 785, 1385, 1386, 1411, 1410
707, 761, 762, 787, 786, 1386, 1387, 1412, 1411
708, 762, 763, 788, 787, 1387, 1388, 1413, 1412
709, 763, 764, 789, 788, 1388, 1389, 1414, 1413
710, 764, 765, 790, 789, 1389, 1390, 1415, 1414
711, 765, 766, 791, 790, 1390, 1391, 1416, 1415
712, 766, 767, 792, 791, 1391, 1392, 1417, 1416
713, 767, 768, 793, 792, 1392, 1393, 1418, 1417
714, 768, 769, 794, 793, 1393, 1394, 1419, 1418
715, 769, 770, 795, 794, 1394, 1395, 1420, 1419
716, 770, 771, 796, 795, 1395, 1396, 1421, 1420
717, 771, 772, 797, 796, 1396, 1397, 1422, 1421
718, 772, 773, 798, 797, 1397, 1398, 1423, 1422
719, 773, 774, 799, 798, 1398, 1399, 1424, 1423
720, 774, 775, 800, 799, 1399, 1400, 1425, 1424
721, 776, 777, 802, 801, 1401, 1402, 1427, 1426
722, 777, 778, 803, 802, 1402, 1403, 1428, 1427
723, 778, 779, 804, 803, 1403, 1404, 1429, 1428
724, 779, 780, 805, 804, 1404, 1405, 1430, 1429
725, 780, 781, 806, 805, 1405, 1406, 1431, 1430
726, 781, 782, 807, 806, 1406, 1407, 1432, 1431
727, 782, 783, 808, 807, 1407, 1408, 1433, 1432
728, 783, 784, 809, 808, 1408, 1409, 1434, 1433
729, 784, 785, 810, 809, 1409, 1410, 1435, 1434
730, 785, 786, 811, 810, 1410, 1411, 1436, 1435
731, 786, 787, 812, 811, 1411, 1412, 1437, 1436
732, 787, 788, 813, 812, 1412, 1413, 1438, 1437
733, 788, 789, 814, 813, 1413, 1414, 1439, 1438
734, 789, 790, 815, 814, 1414, 1415, 1440, 1439
735, 790, 791, 816, 815, 1415, 1416, 1441, 1440
736, 791, 792, 817, 816, 1416, 1417, 1442, 1441
737, 792, 793, 818, 817, 1417, 1418, 1443, 1442
738, 793, 794, 819, 818, 1418, 1419, 1444, 1443
739, 794, 795, 820, 819, 1419, 1420, 1445, 1444
740, 795, 796, 821, 820, 1420, 1421, 1446, 1445
741, 796, 797, 822, 821, 1421, 1422, 1447, 1446
742, 797, 798, 823, 822, 1422, 1423, 1448, 1447
743, 798, 799, 824, 823, 1423, 1424, 1449, 1448
744, 799, 800, 825, 824, 1424, 1425, 1450, 1449
745, 801, 802, 827, 826, 1426, 1427, 1452, 1451
746, 802, 803, 828, 827, 1427, 1428, 1453, 1452
747, 803, 804, 829, 828, 1428, 1429, 1454, 1453
748, 804, 805, 830, 829, 1429, 1430, 1455, 1454
749, 805, 806, 831, 830, 1430, 1431, 1456, 1455
750, 806, 807, 832, 831, 1431, 1432, 1457, 1456
751, 807, 808, 833, 832, 1432, 1433, 1458, 1457
752, 808, 809, 834, 833, 1433, 1434, 1459, 1458
753, 809, 810, 835, 834, 1434, 1435, 1460, 1459
754, 810, 811, 836, 835, 1435, 1436, 1461, 1460
755, 811, 812, 837, 836, 1436, 1437, 1462, 1461
756, 812, 813, 838, 837, 1437, 1438, 1463, 1462
757, 813, 814, 839, 838, 1438, 1439, 1464, 1463
758, 814, 815, 840, 839, 1439, 1440, 1465, 1464
759, 815, 816, 841, 840, 1440, 1441, 1466, 1465
760, 816, 817, 842, 841, 1441, 1442, 1467, 1466
761, 817, 818, 843, 842, 1442, 1443, 1468, 1467
762, 818, 819, 844, 843, 1443, 1444, 1469, 1468
763, 819, 820, 845, 844, 1444, 1445, 1470, 1469
764, 820, 821, 846, 845, 1445, 1446, 1471, 1470
765, 821, 822, 847, 846, 1446, 1447, 1472, 1471
766, 822, 823, 848, 847, 1447, 1448, 1473, 1472
767, 823, 824, 849, 848, 1448, 1449, 1474, 1473
768, 824, 825, 850, 849, 1449, 1450, 1475, 1474
769, 826, 827, 852, 851, 1451, 1452, 1477, 1476
770, 827, 828, 853, 852, 1452, 1453, 1478, 1477
771, 828, 829, 854, 853, 1453, 1454, 1479, 1478
772, 829, 830, 855, 854, 1454, 1455, 1480, 1479
773, 830, 831, 856, 855, 1455, 1456, 1481, 1480
774, 831, 832, 857, 856, 1456, 1457, 1482, 1481
775, 832, 833, 858, 857, 1457, 1458, 1483, 1482
776, 833, 834, 859, 858, 1458, 1459, 1484, 1483
777, 834, 835, 860, 859, 1459, 1460, 1485, 1484
778, 835, 836, 861, 860, 1460, 1461, 1486, 1485
779, 836, 837, 862, 861, 1461, 1462, 1487, 1486
780, 837, 838, 863, 862, 1462, 1463, 1488, 1487
781, 838, 839, 864, 863, 1463, 1464, 1489, 1488
782, 839, 840, 865, 864, 1464, 1465, 1490, 1489
783, 840, 841, 866, 865, 1465, 1466, 1491, 1490
784, 841, 842, 867, 866, 1466, 1467, 1492, 1491
785, 842, 843, 868, 867, 1467, 1468, 1493, 1492
786, 843, 844, 869, 868, 1468, 1469, 1494, 1493
787, 844, 845, 870, 869, 1469, 1470, 1495, 1494
788, 845, 846, 871, 870, 1470, 1471, 1496, 1495
789, 846, 847, 872, 871, 1471, 1472, 1497, 1496
790, 847, 848, 873, 872, 1472, 1473, 1498, 1497
791, 848, 849, 874, 873, 1473, 1474, 1499, 1498
792, 849, 850, 875, 874, 1474, 1475, 1500, 1499
793, 851, 852, 877, 876, 1476, 1477, 1502, 1501
794, 852, 853, 878, 877, 1477, 1478, 1503, 1502
795, 853, 854, 879, 878, 1478, 1479, 1504, 1503
796, 854, 855, 880, 879, 1479, 1480, 1505, 1504
797, 855, 856, 881, 880, 1480, 1481, 1506, 1505
798, 856, 857, 882, 881, 1481, 1482, 1507, 1506
799, 857, 858, 883, 882, 1482, 1483, 1508, 1507
800, 858, 859, 884, 883, 1483, 1484, 1509, 1508
801, 859, 860, 885, 884, 1484, 1485, 1510, 1509
802, 860, 861, 886, 885, 1485, 1486, 1511, 1510
803, 861, 862, 887, 886, 1486, 1487, 1512, 1511
804, 862, 863, 888, 887, 1487, 1488, 1513, 1512
805, 863, 864, 889, 888, 1488, 1489, 1514, 1513
806, 864, 865, 890, 889, 1489, 1490, 1515, 1514
807, 865, 866, 891, 890, 1490, 1491, 1516, 1515
808, 866, 867, 892, 891, 1491, 1492, 1517, 1516
809, 867, 868, 893, 892, 1492, 1493, 1518, 1517
810, 868, 869, 894, 893, 1493, 1494, 1519, 1518
811, 869, 870, 895, 894, 1494, 1495, 1520, 1519
812, 870, 871, 896, 895, 1495, 1496, 1521, 1520
813, 871, 872, 897, 896, 1496, 1497, 1522, 1521
814, 872, 873, 898, 897, 1497, 1498, 1523, 1522
815, 873, 874, 899, 898, 1498, 1499, 1524, 1523
816, 874, 875, 900, 899, 1499, 1500, 1525, 1524
817, 876, 877, 902, 901, 1501, 1502, 1527, 1526
818, 877, 878, 903, 902, 1502, 1503, 1528, 1527
819, 878, 879, 904, 903, 1503, 1504, 1529, 1528
820, 879, 880, 905, 904, 1504, 1505, 1530, 1529
821, 880, 881, 906, 905, 1505, 1506, 1531, 1530
822, 881, 882, 907, 906, 1506, 1507, 1532, 1531
823, 882, 883, 908, 907, 1507, 1508, 1533, 1532
824, 883, 884, 909, 908, 1508, 1509, 1534, 1533
825, 884, 885, 910, 909, 1509, 1510, 1535, 1534
826, 885, 886, 911, 910, 1510, 1511, 1536, 1535
827, 886, 887, 912, 911, 1511, 1512, 1537, 1536
828, 887, 888, 913, 912, 1512, 1513, 1538, 1537
829, 888, 889, 914, 913, 1513, 1514, 1539, 1538
830, 889, 890, 915, 914, 1514, 1515, 1540, 1539
831, 890, 891, 916, 915, 1515, 1516, 1541, 1540
832, 891, 892, 917, 916, 1516, 1517, 1542, 1541
833, 892, 893, 918, 917, 1517, 1518, 1543, 1542
834, 893, 894, 919, 918, 1518, 1519, 1544, 1543
835, 894, 895, 920, 919, 1519, 1520, 1545, 1544
836, 895, 896, 921, 920, 1520, 1521, 1546, 1545
837, 896, 897, 922, 921, 1521, 1522, 1547, 1546
838, 897, 898, 923, 922, 1522, 1523, 1548, 1547
839, 898, 899, 924, 923, 1523, 1524, 1549, 1548
840, 899, 900, 925, 924, 1524, 1525, 1550, 1549
841, 901, 902, 927, 926, 1526, 1527, 1552, 1551
842, 902, 903, 928, 927, 1527, 1528, 1553, 1552
843, 903, 904, 929, 928, 1528, 1529, 1554, 1553
844, 904, 905, 930, 929, 1529, 1530, 1555, 1554
845, 905, 906, 931, 930, 1530, 1531, 1556, 1555
846, 906, 907, 932, 931, 1531, 1532, 1557, 1556
847, 907, 908, 933, 932, 1532, 1533, 1558, 1557
848, 908, 909, 934, 933, 1533, 1534, 1559, 1558
849, 909, 910, 935, 934, 1534, 1535, 1560, 1559
850, 910, 911, 936, 935, 1535, 1536, 1561, 1560
851, 911, 912, 937, 936, 1536, 1537, 1562, 1561
852, 912, 913, 938, 937, 1537, 1538, 1563, 1562
853, 913, 914, 939, 938, 1538, 1539, 1564, 1563
854, 914, 915, 940, 939, 1539, 1540, 1565, 1564
855, 915, 916, 941, 940, 1540, 1541, 1566, 1565
856, 916, 917, 942, 941, 1541, 1542, 1567, 1566
857, 917, 918, 943, 942, 1542, 1543, 1568, 1567
858, 918, 919, 944, 943, 1543, 1544, 1569, 1568
859, 919, 920, 945, 944, 1544, 1545, 1570, 1569
860, 920, 921, 946, 945, 1545, 1546, 1571, 1570
861, 921, 922, 947, 946, 1546, 1547, 1572, 1571
862, 922, 923, 948, 947, 1547, 1548, 1573, 1572
863, 923, 924, 949, 948, 1548, 1549, 1574, 1573
864, 924, 925, 950, 949, 1549, 1550, 1575, 1574
865, 926, 927, 952, 951, 1551, 1552, 1577, 1576
866, 927, 928, 953, 952, 1552, 1553, 1578, 1577
867, 928, 929, 954, 953, 1553, 1554, 1579, 1578
868, 929, 930, 955, 954, 1554, 1555, 1580, 1579
869, 930, 931, 956, 955, 1555, 1556, 1581, 1580
870, 931, 932, 957, 956, 1556, 1557, 1582, 1581
871, 932, 933, 958, 957, 1557, 1558, 1583, 1582
872, 933, 934, 959, 958, 1558, 1559, 1584, 1583
873, 934, 935, 960, 959, 1559, 1560, 1585, 1584
874, 935, 936, 961, 960, 1560, 1561, 1586, 1585
875, 936, 937, 962, 961, 1561, 1562, 1587, 1586
876, 937, 938, 963, 962, 1562, 1563, 1588, 1587
877, 938, 939, 964, 963, 1563, 1564, 1589, 1588
878, 939, 940, 965, 964, 1564, 1565, 1590, 1589
879, 940, 941, 966, 965, 1565, 1566, 1591, 1590
880, 941, 942, 967, 966, 1566, 1567, 1592, 1591
881, 942, 943, 968, 967, 1567, 1568, 1593, 1592
882, 943, 944, 969, 968, 1568, 1569, 1594, 1593
883, 944, 945, 970, 969, 1569, 1570, 1595, 1594
884, 945, 946, 971, 970, 1570, 1571, 1596, 1595
885, 946, 947, 972, 971, 1571, 1572, 1597, 1596
886, 947, 948, 973, 972, 1572, 1573, 1598, 1597
887, 948, 949, 974, 973, 1573, 1574, 1599, 1598
888, 949, 950, 975, 974, 1574, 1575, 1600, 1599
889, 951, 952, 977, 976, 1576, 1577, 1602, 1601
890, 952, 953, 978, 977, 1577, 1578, 1603, 1602
891, 953, 954, 979, 978, 1578, 1579, 1604, 1603
892, 954, 955, 980, 979, 1579, 1580, 1605, 1604
893, 955, 956, 981, 980, 1580, 1581, 1606, 1605
894, 956, 957, 982, 981, 1581, 1582, 1607, 1606
895, 957, 958, 983, 982, 1582, 1583, 1608, 1607
896, 958, 959, 984, 983, 1583, 1584, 1609, 1608
897, 959, 960, 985, 984, 1584, 1585, 1610, 1609
898, 960, 961, 986, 985, 1585, 1586, 1611, 1610
899, 961, 962, 987, 986, 1586, 1587, 1612, 1611
900, 962, 963, 988, 987, 1587, 1588, 1613, 1612
901, 963, 964, 989, 988, 1588, 1589, 1614, 1613
902, 964, 965, 990, 989, 1589, 1590, 1615, 1614
903, 965, 966, 991, 990, 1590, 1591, 1616, 1615
904, 966, 967, 992, 991, 1591, 1592, 1617, 1616
905, 967, 968, 993, 992, 1592, 1593, 1618, 1617
906, 968, 969, 994, 993, 1593, 1594, 1619, 1618
907, 969, 970, 995, 994, 1594, 1595, 1620, 1619
908, 970, 971, 996, 995, 1595, 1596, 1621, 1620
909, 971, 972, 997, 996, 1596, 1597, 1622, 1621
910, 972, 973, 998, 997, 1597, 1598, 1623, 1622
911, 973, 974, 999, 998, 1598, 1599, 1624, 1623
912, 974, 975, 1000, 999, 1599, 1600, 1625, 1624
913, 976, 977, 1002, 1001, 1601, 1602, 1627, 1626
914, 977, 978, 1003, 1002, 1602, 1603, 1628, 1627
915, 978, 979, 1004, 1003, 1603, 1604, 1629, 1628
916, 979, 980, 1005, 1004, 1604, 1605, 1630, 1629
917, 980, 981, 1006, 1005, 1605, 1606, 1631, 1630
918, 981, 982, 1007, 1006, 1606, 1607, 1632, 1631
919, 982, 983, 1008, 1007, 1607, 1608, 1633, 1632
920, 983, 984, 1009, 1008, 1608, 1609, 1634, 1633
921, 984, 985, 1010, 1009, 1609, 1610, 1635, 1634
922, 985, 986, 1011, 1010, 1610, 1611, 1636, 1635
923, 986, 987, 1012, 1011, 1611, 1612, 1637, 1636
924, 987, 988, 1013, 1012, 1612, 1613, 1638, 1637
925, 988, 989, 1014, 1013, 1613, 1614, 1639, 1638
926, 989, 990, 1015, 1014, 1614, 1615, 1640, 1639
927, 990, 991, 1016, 1015, 1615, 1616, 1641, 1640
928, 991, 992, 1017, 1016, 1616, 1617, 1642, 1641
929, 992, 993, 1018, 1017, 1617, 1618, 1643, 1642
930, 993, 994, 1019, 1018, 1618, 1619, 1644, 1643
931, 994, 995, 1020, 1019, 1619, 1620, 1645, 1644
932, 995, 996, 1021, 1020, 1620, 1621, 1646, 1645
933, 996, 997, 1022, 1021, 1621, 1622, 1647, 1646
934, 997, 998, 1023, 1022, 1622, 1623, 1648, 1647
935, 998, 999, 1024, 1023, 1623, 1624, 1649, 1648
936, 999, 1000, 1025, 1024, 1624, 1625, 1650, 1649
937, 1001, 1002, 1027, 1026, 1626, 1627, 1652, 1651
938, 1002, 1003, 1028, 1027, 1627, 1628, 1653, 1652
939, 1003, 1004, 1029, 1028, 1628, 1629, 1654, 1653
940, 1004, 1005, 1030, 1029, 1629, 1630, 1655, 1654
941, 1005, 1006, 1031, 1030, 1630, 1631, 1656, 1655
942, 1006, 1007, 1032, 1031, 1631, 1632, 1657, 1656
943, 1007, 1008, 1033, 1032, 1632, 1633, 1658, 1657
944, 1008, 1009, 1034, 1033, 1633, 1634, 1659, 1658
945, 1009, 1010, 1035, 1034, 1634, 1635, 1660, 1659
946, 1010, 1011, 1036, 1035, 1635, 1636, 1661, 1660
947, 1011, 1012, 1037, 1036, 1636, 1637, 1662, 1661
948, 1012, 1013, 1038, 1037, 1637, 1638, 1663, 1662
949, 1013, 1014, 1039, 1038, 1638, 1639, 1664, 1663
950, 1014, 1015, 1040, 1039, 1639, 1640, 1665, 1664
951, 1015, 1016, 1041, 1040, 1640, 1641, 1666, 1665
952, 1016, 1017, 1042, 1041, 1641, 1642, 1667, 1666
953, 1017, 1018, 1043, 1042, 1642, 1643, 1668, 1667
954, 1018, 1019, 1044, 1043, 1643, 1644, 1669, 1668
955, 1019, 1020, 1045, 1044, 1644, 1645, 1670, 1669
956, 1020, 1021, 1046, 1045, 1645, 1646, 1671, 1670
957, 1021, 1022, 1047, 1046, 1646, 1647, 1672, 1671
958, 1022, 1023, 1048, 1047, 1647, 1648, 1673, 1672
959, 1023, 1024, 1049, 1048, 1648, 1649, 1674, 1673
960, 1024, 1025, 1050, 1049, 1649, 1650, 1675, 1674
961, 1026, 1027, 1052, 1051, 1651, 1652, 1677, 1676
962, 1027, 1028, 1053, 1052, 1652, 1653, 1678, 1677
963, 1028, 1029, 1054, 1053, 1653, 1654, 1679, 1678
964, 1029, 1030, 1055, 1054, 1654, 1655, 1680, 1679
965, 1030, 1031, 1056, 1055, 1655, 1656, 1681, 1680
966, 1031, 1032, 1057, 1056, 1656, 1657, 1682, 1681
967, 1032, 1033, 1058, 1057, 1657, 1658, 1683, 1682
968, 1033, 1034, 1059, 1058, 1658, 1659, 1684, 1683
969, 1034, 1035, 1060, 1059, 1659, 1660, 1685, 1684
970, 1035, 1036, 1061, 1060, 1660, 1661, 1686, 1685
971, 1036, 1037, 1062, 1061, 1661, 1662, 1687, 1686
972, 1037, 1038, 1063, 1062, 1662, 1663, 1688, 1687
973, 1038, 1039, 1064, 1063, 1663, 1664, 1689, 1688
974, 1039, 1040, 1065, 1064, 1664, 1665, 1690, 1689
975, 1040, 1041, 1066, 1065, 1665, 1666, 1691, 1690
976, 1041, 1042, 1067, 1066, 1666, 1667, 1692, 1691
977, 1042, 1043, 1068, 1067, 1667, 1668, 1693, 1692
978, 1043, 1044, 1069, 1068, 1668, 1669, 1694, 1693
979, 1044, 1045, 1070, 1069, 1669, 1670, 1695, 1694
980, 1045, 1046, 1071, 1070, 1670, 1671, 1696, 1695
981, 1046, 1047, 1072, 1071, 1671, 1672, 1697, 1696
982, 1047, 1048, 1073, 1072, 1672, 1673, 1698, 1697
983, 1048, 1049, 1074, 1073, 1673, 1674, 1699, 1698
984, 1049, 1050, 1075, 1074, 1674, 1675, 1700, 1699
985, 1051, 1052, 1077, 1076, 1676, 1677, 1702, 1701
986, 1052, 1053, 1078, 1077, 1677, 1678, 1703, 1702
987, 1053, 1054, 1079, 1078, 1678, 1679, 1704, 1703
988, 1054, 1055, 1080, 1079, 1679, 1680, 1705, 1704
989, 1055, 1056, 1081, 1080, 1680, 1681, 1706, 1705
990, 1056, 1057, 1082, 1081, 1681, 1682, 1707, 1706
991, 1057, 1058, 1083, 1082, 1682, 1683, 1708, 1707
992, 1058, 1059, 1084, 1083, 1683, 1684, 1709, 1708
993, 1059, 1060, 1085, 1084, 1684, 1685, 1710, 1709
994, 1060, 1061, 1086, 1085, 1685, 1686, 1711, 1710
995, 1061, 1062, 1087, 1086, 1686, 1687, 1712, 1711
996, 1062, 1063, 1088, 1087, 1687, 1688, 1713, 1712
997, 1063, 1064, 1089, 1088, 1688, 1689, 1714, 1713
998, 1064, 1065, 1090, 1089, 1689, 1690, 1715, 1714
999, 1065, 1066, 1091, 1090, 1690, 1691, 1716, 1715
1000, 1066, 1067, 1092, 1091, 1691, 1692, 1717, 1716
1001, 1067, 1068, 1093, 1092, 1692, 1693, 1718, 1717
1002, 1068, 1069, 1094, 1093, 1693, 1694, 1719, 1718
1003, 1069, 1070, 1095, 1094, 1694, 1695, 1720, 1719
1004, 1070, 1071, 1096, 1095, 1695, 1696, 1721, 1720
1005, 1071, 1072, 1097, 1096, 1696, 1697, 1722, 1721
1006, 1072, 1073, 1098, 1097, 1697, 1698, 1723, 1722
1007, 1073, 1074, 1099, 1098, 1698, 1699, 1724, 1723
1008, 1074, 1075, 1100, 1099, 1699, 1700, 1725, 1724
1009, 1076, 1077, 1102, 1101, 1701, 1702, 1727, 1726
1010, 1077, 1078, 1103, 1102, 1702, 1703, 1728, 1727
1011, 1078, 1079, 1104, 1103, 1703, 1704, 1729, 1728
1012, 1079, 1080, 1105, 1104, 1704, 1705, 1730, 1729
1013, 1080, 1081, 1106, 1105, 1705, 1706, 1731, 1730
1014, 1081, 1082, 1107, 1106, 1706, 1707, 1732, 1731
1015, 1082, 1083, 1108, 1107, 1707, 1708, 1733, 1732
1016, 1083, 1084, 1109, 1108, 1708, 1709, 1734, 1733
1017, 1084, 1085, 1110, 1109, 1709, 1710, 1735, 1734
1018, 1085, 1086, 1111, 1110, 1710, 1711, 1736, 1735
1019, 1086, 1087, 1112, 1111, 1711, 1712, 1737, 1736
1020, 1087, 1088, 1113, 1112, 1712, 1713, 1738, 1737
1021, 1088, 1089, 1114, 1113, 1713, 1714, 1739, 1738
1022, 1089, 1090, 1115, 1114, 1714, 1715, 1740, 1739
1023, 1090, 1091, 1116, 1115, 1715, 1716, 1741, 1740
1024, 1091, 1092, 1117, 1116, 1716, 1717, 1742, 1741
1025, 1092, 1093, 1118, 1117, 1717, 1718, 1743, 1742
1026, 1093, 1094, 1119, 1118, 1718, 1719, 1744, 1743
1027, 1094, 1095, 1120, 1119, 1719, 1720, 1745, 1744
1028, 1095, 1096, 1121, 1120, 1720, 1721, 1746, 1745
1029, 1096, 1097, 1122, 1121, 1721, 1722, 1747, 1746
1030, 1097, 1098, 1123, 1122, 1722, 1723, 1748, 1747
1031, 1098, 1099, 1124, 1123, 1723, 1724, 1749, 1748
1032, 1099, 1100, 1125, 1124, 1724, 1725, 1750, 1749
1033, 1101, 1102, 1127, 1126, 1726, 1727, 1752, 1751
1034, 1102, 1103, 1128, 1127, 1727, 1728, 1753, 1752
1035, 1103, 1104, 1129, 1128, 1728, 1729, 1754, 1753
1036, 1104, 1105, 1130, 1129, 1729, 1730, 1755, 1754
1037, 1105, 1106, 1131, 1130, 1730, 1731, 1756, 1755
1038, 1106, 1107, 1132, 1131, 1731, 1732, 1757, 1756
1039, 1107, 1108, 1133, 1132, 1732, 1733, 1758, 1757
1040, 1108, 1109, 1134, 1133, 1733, 1734, 1759, 1758
1041, 1109, 1110, 1135, 1134, 1734, 1735, 1760, 1759
1042, 1110, 1111, 1136, 1135, 1735, 1736, 1761, 1760
1043, 1111, 1112, 1137, 1136, 1736, 1737, 1762, 1761
1044, 1112, 1113, 1138, 1137, 1737, 1738, 1763, 1762
1045, 1113, 1114, 1139, 1138, 1738, 1739, 1764, 1763
1046, 1114, 1115, 1140, 1139, 1739, 1740, 1765, 1764
1047, 1115, 1116, 1141, 1140, 1740, 1741, 1766, 1765
1048, 1116, 1117, 1142, 1141, 1741, 1742, 1767, 1766
1049, 1117, 1118, 1143, 1142, 1742, 1743, 1768, 1767
1050, 1118, 1119, 1144, 1143, 1743, 1744, 1769, 1768
1051, 1119, 1120, 1145, 1144, 1744, 1745, 1770, 1769
1052, 1120, 1121, 1146, 1145, 1745, 1746, 1771, 1770
1053, 1121, 1122, 1147, 1146, 1746, 1747, 1772, 1771
1054, 1122, 1123, 1148, 1147, 1747, 1748, 1773, 1772
1055, 1123, 1124, 1149, 1148, 1748, 1749, 1774, 1773
1056, 1124, 1125, 1150, 1149, 1749, 1750, 1775, 1774
1057, 1126, 1127, 1152, 1151, 1751, 1752, 1777, 1776
1058, 1127, 1128, 1153, 1152, 1752, 1753, 1778, 1777
1059, 1128, 1129, 1154, 1153, 1753, 1754, 1779, 1778
1060, 1129, 1130, 1155, 1154, 1754, 1755, 1780, 1779
1061, 1130, 1131, 1156, 1155, 1755, 1756, 1781, 1780
1062, 1131, 1132, 1157, 1156, 1756, 1757, 1782, 1781
1063, 1132, 1133, 1158, 1157, 1757, 1758, 1783, 1782
1064, 1133, 1134, 1159, 1158, 1758, 1759, 1784, 1783
1065, 1134, 1135, 1160, 1159, 1759, 1760, 1785, 1784
1066, 1135, 1136, 1161, 1160, 1760, 1761, 1786, 1785
1067, 1136, 1137, 1162, 1161, 1761, 1762, 1787, 1786
1068, 1137, 1138, 1163, 1162, 1762, 1763, 1788, 1787
1069, 1138, 1139, 1164, 1163, 1763, 1764, 1789, 1788
1070, 1139, 1140, 1165, 1164, 1764, 1765, 1790, 1789
1071, 1140, 1141, 1166, 1165, 1765, 1766, 1791, 1790
1072, 1141, 1142, 1167, 1166, 1766, 1767, 1792, 1791
1073, 1142, 1143, 1168, 1167, 1767, 1768, 1793, 1792
1074, 1143, 1144, 1169, 1168, 1768, 1769, 1794, 1793
1075, 1144, 1145, 1170, 1169, 1769, 1770, 1795, 1794
1076, 1145, 1146, 1171, 1170, 1770, 1771, 1796, 1795
1077, 1146, 1147, 1172, 1171, 1771, 1772, 1797, 1796
1078, 1147, 1148, 1173, 1172, 1772, 1773, 1798, 1797
1079, 1148, 1149, 1174, 1173, 1773, 1774, 1799, 1798
1080, 1149, 1150, 1175, 1174, 1774, 1775, 1800, 1799
1081, 1151, 1152, 1177, 1176, 1776, 1777, 1802, 1801
1082, 1152, 1153, 1178, 1177, 1777, 1778, 1803, 1802
1083, 1153, 1154, 1179, 1178, 1778, 1779, 1804, 1803
1084, 1154, 1155, 1180, 1179, 1779, 1780, 1805, 1804
1085, 1155, 1156, 1181, 1180, 1780, 1781, 1806, 1805
1086, 1156, 1157, 1182, 1181, 1781, 1782, 1807, 1806
1087, 1157, 1158, 1183, 1182, 1782, 1783, 1808, 1807
1088, 1158, 1159, 1184, 1183, 1783, 1784, 1809, 1808
1089, 1159, 1160, 1185, 1184, 1784, 1785, 1810, 1809
1090, 1160, 1161, 1186, 1185, 1785, 1786, 1811, 1810
1091, 1161, 1162, 1187, 1186, 1786, 1787, 1812, 1811
1092, 1162, 1163, 1188, 1187, 1787, 1788, 1813, 1812
1093, 1163, 1164, 1189, 1188, 1788, 1789, 1814, 1813
1094, 1164, 1165, 1190, 1189, 1789, 1790, 1815, 1814
1095, 1165, 1166, 1191, 1190, 1790, 1791, 1816, 1815
1096, 1166, 1167, 1192, 1191, 1791, 1792, 1817, 1816
1097, 1167, 1168, 1193, 1192, 1792, 1793, 1818, 1817
1098, 1168, 1169, 1194, 1193, 1793, 1794, 1819, 1818
1099, 1169, 1170, 1195, 1194, 1794, 1795, 1820, 1819
1100, 1170, 1171, 1196, 1195, 1795, 1796, 1821, 1820
1101, 1171, 1172, 1197, 1196, 1796, 1797, 1822, 1821
1102, 1172, 1173, 1198, 1197, 1797, 1798, 1823, 1822
1103, 1173, 1174, 1199, 1198, 1798, 1799, 1824, 1823
1104, 1174, 1175, 1200, 1199, 1799, 1800, 1825, 1824
1105, 1176, 1177, 1202, 1201, 1801, 1802, 1827, 1826
1106, 1177, 1178, 1203, 1202, 1802, 1803, 1828, 1827
1107, 1178, 1179, 1204, 1203, 1803, 1804, 1829, 1828
1108, 1179, 1180, 1205, 1204, 1804, 1805, 1830, 1829
1109, 1180, 1181, 1206, 1205, 1805, 1806, 1831, 1830
1110, 1181, 1182, 1207, 1206, 1806, 1807, 1832, 1831
1111, 1182, 1183, 1208, 1207, 1807, 1808, 1833, 1832
1112, 1183, 1184, 1209, 1208, 1808, 1809, 1834, 1833
1113, 1184, 1185, 1210, 1209, 1809, 1810, 1835, 1834
1114, 1185, 1186, 1211, 1210, 1810, 1811, 1836, 1835
1115, 1186, 1187, 1212, 1211, 1811, 1812, 1837, 1836
1116, 1187, 1188, 1213, 1212, 1812, 1813, 1838, 1837
1117, 1188, 1189, 1214, 1213, 1813, 1814, 1839, 1838
1118, 1189, 1190, 1215, 1214, 1814, 1815, 1840, 1839
1119, 1190, 1191, 1216, 1215, 1815, 1816, 1841, 1840
1120, 1191, 1192, 1217, 1216, 1816, 1817, 1842, 1841
1121, 1192, 1193, 1218, 1217, 1817, 1818, 1843, 1842
1122, 1193, 1194, 1219, 1218, 1818, 1819, 1844, 1843
1123, 1194, 1195, 1220, 1219, 1819, 1820, 1845, 1844
1124, 1195, 1196, 1221, 1220, 1820, 1821, 1846, 1845
1125, 1196, 1197, 1222, 1221, 1821, 1822, 1847, 1846
1126, 1197, 1198, 1223, 1222, 1822, 1823, 1848, 1847
1127, 1198, 1199, 1224, 1223, 1823, 1824, 1849, 1848
1128, 1199, 1200, 1225, 1224, 1824, 1825, 1850, 1849
1129, 1201, 1202, 1227, 1226, 1826, 1827, 1852, 1851
1130, 1202, 1203, 1228, 1227, 1827, 1828, 1853, 1852
1131, 1203, 1204, 1229, 1228, 1828, 1829, 1854, 1853
1132, 1204, 1205, 1230, 1229, 1829, 1830, 1855, 1854
1133, 1205, 1206, 1231, 1230, 1830, 1831, 1856, 1855
1134, 1206, 1207, 1232, 1231, 1831, 1832, 1857, 1856
1135, 1207, 1208, 1233, 1232, 1832, 1833, 1858, 1857
1136, 1208, 1209, 1234, 1233, 1833, 1834, 1859, 1858
1137, 1209, 1210, 1235, 1234, 1834, 1835, 1860, 1859
1138, 1210, 1211, 1236, 1235, 1835, 1836, 1861, 1860
1139, 1211, 1212, 1237, 1236, 1836, 1837, 1862, 1861
1140, 1212, 1213, 1238, 1237, 1837, 1838, 1863, 1862
1141, 1213, 1214, 1239, 1238, 1838, 1839, 1864, 1863
1142, 1214, 1215, 1240, 1239, 1839, 1840, 1865, 1864
1143, 1215, 1216, 1241, 1240, 1840, 1841, 1866, 1865
1144, 1216, 1217, 1242, 1241, 1841, 1842, 1867, 1866
1145, 1217, 1218, 1243, 1242, 1842, 1843, 1868, 1867
1146, 1218, 1219, 1244, 1243, 1843, 1844, 1869, 1868
1147, 1219, 1220, 1245, 1244, 1844, 1845, 1870, 1869
1148, 1220, 1221, 1246, 1245, 1845, 1846, 1871, 1870
1149, 1221, 1222, 1247, 1246, 1846, 1847, 1872, 1871
1150, 1222, 1223, 1248, 1247, 1847, 1848, 1873, 1872
1151, 1223, 1224, 1249, 1248, 1848, 1849, 1874, 1873
1152, 1224, 1225, 1250, 1249, 1849, 1850, 1875, 1874
1153, 1251, 1252, 1277, 1276, 1876, 1877, 1902, 1901
1154, 1252, 1253, 1278, 1277, 1877, 1878, 1903, 1902
1155, 1253, 1254, 1279, 1278, 1878, 1879, 1904, 1903
1156, 1254, 1255, 1280, 1279, 1879, 1880, 1905, 1904
1157, 1255, 1256, 1281, 1280, 1880, 1881, 1906, 1905
1158, 1256, 1257, 1282, 1281, 1881, 1882, 1907, 1906
1159, 1257, 1258, 1283, 1282, 1882, 1883, 1908, 1907
1160, 1258, 1259, 1284, 1283, 1883, 1884, 1909, 1908
1161, 1259, 1260, 1285, 1284, 1884, 1885, 1910, 1909
1162, 1260, 1261, 1286, 1285, 1885, 1886, 1911, 1910
1163, 1261, 1262, 1287, 1286, 1886, 1887, 1912, 1911
1164, 1262, 1263, 1288, 1287, 1887, 1888, 1913, 1912
1165, 1263, 1264, 1289, 1288, 1888, 1889, 1914, 1913
1166, 1264, 1265, 1290, 1289, 1889, 1890, 1915, 1914
1167, 1265, 1266, 1291, 1290, 1890, 1891, 1916, 1915
1168, 1266, 1267, 1292, 1291, 1891, 1892, 1917, 1916
1169, 1267, 1268, 1293, 1292, 1892, 1893, 1918, 1917
1170, 1268, 1269, 1294, 1293, 1893, 1894, 1919, 1918
1171, 1269, 1270, 1295, 1294, 1894, 1895, 1920, 1919
1172, 1270, 1271, 1296, 1295, 1895, 1896, 1921, 1920
1173, 1271, 1272, 1297, 1296, 1896, 1897, 1922, 1921
1174, 1272, 1273, 1298, 1297, 1897, 1898, 1923, 1922
1175, 1273, 1274, 1299, 1298, 1898, 1899, 1924, 1923
1176, 1274, 1275, 1300, 1299, 1899, 1900, 1925, 1924
1177, 1276, 1277, 1302, 1301, 1901, 1902, 1927, 1926
1178, 1277, 1278, 1303, 1302, 1902, 1903, 1928, 1927
1179, 1278, 1279, 1304, 1303, 1903, 1904, 1929, 1928
1180, 1279, 1280, 1305, 1304, 1904, 1905, 1930, 1929
1181, 1280, 1281, 1306, 1305, 1905, 1906, 1931, 1930
1182, 1281, 1282, 1307, 1306, 1906, 1907, 1932, 1931
1183, 1282, 1283, 1308, 1307, 1907, 1908, 1933, 1932
1184, 1283, 1284, 1309, 1308, 1908, 1909, 1934, 1933
1185, 1284, 1285, 1310, 1309, 1909, 1910, 1935, 1934
1186, 1285, 1286, 1311, 1310, 1910, 1911, 1936, 1935
1187, 1286, 1287, 1312, 1311, 1911, 1912, 1937, 1936
1188, 1287, 1288, 1313, 1312, 1912, 1913, 1938, 1937
1189, 1288, 1289, 1314, 1313, 1913, 1914, 1939, 1938
1190, 1289, 1290, 1315, 1314, 1914, 1915, 1940, 1939
1191, 1290, 1291, 1316, 1315, 1915, 1916, 1941, 1940
1192, 1291, 1292, 1317, 1316, 1916, 1917, 1942, 1941
1193, 1292, 1293, 1318, 1317, 1917, 1918, 1943, 1942
1194, 1293, 1294, 1319, 1318, 1918, 1919, 1944, 1943
1195, 1294, 1295, 1320, 1319, 1919, 1920, 1945, 1944
1196, 1295, 1296, 1321, 1320, 1920, 1921, 1946, 1945
1197, 1296, 1297, 1322, 1321, 1921, 1922, 1947, 1946
1198, 1297, 1298, 1323, 1322, 1922, 1923, 1948, 1947
1199, 1298, 1299, 1324, 1323, 1923, 1924, 1949, 1948
1200, 1299, 1300, 1325, 1324, 1924, 1925, 1950, 1949
1201, 1301, 1302, 1327, 1326, 1926, 1927, 1952, 1951
1202, 1302, 1303, 1328, 1327, 1927, 1928, 1953, 1952
1203, 1303, 1304, 1329, 1328, 1928, 1929, 1954, 1953
1204, 1304, 1305, 1330, 1329, 1929, 1930, 1955, 1954
1205, 1305, 1306, 1331, 1330, 1930, 1931, 1956, 1955
1206, 1306, 1307, 1332, 1331, 1931, 1932, 1957, 1956
1207, 1307, 1308, 1333, 1332, 1932, 1933, 1958, 1957
1208, 1308, 1309, 1334, 1333, 1933, 1934, 1959, 1958
1209, 1309, 1310, 1335, 1334, 1934, 1935, 1960, 1959
1210, 1310, 1311, 1336, 1335, 1935, 1936, 1961, 1960
1211, 1311, 1312, 1337, 1336, 1936, 1937, 1962, 1961
1212, 1312, 1313, 1338, 1337, 1937, 1938, 1963, 1962
1213, 1313, 1314, 1339, 1338, 1938, 1939, 1964, 1963
1214, 1314, 1315, 1340, 1339, 1939, 1940, 1965, 1964
1215, 1315, 1316, 1341, 1340, 1940, 1941, 1966, 1965
1216, 1316, 1317, 1342, 1341, 1941, 1942, 1967, 1966
1217, 1317, 1318, 1343, 1342, 1942, 1943, 1968, 1967
1218, 1318, 1319, 1344, 1343, 1943, 1944, 1969, 1968
1219, 1319, 1320, 1345, 1344, 1944, 1945, 1970, 1969
1220, 1320, 1321, 1346, 1345, 1945, 1946, 1971, 1970
1221, 1321, 1322, 1347, 1346, 1946, 1947, 1972, 1971
1222, 1322, 1323, 1348, 1347, 1947, 1948, 1973, 1972
1223, 1323, 1324, 1349, 1348, 1948, 1949, 1974, 1973
1224, 1324, 1325, 1350, 1349, 1949, 1950, 1975, 1974
1225, 1326, 1327, 1352, 1351, 1951, 1952, 1977, 1976
1226, 1327, 1328, 1353, 1352, 1952, 1953, 1978, 1977
1227, 1328, 1329, 1354, 1353, 1953, 1954, 1979, 1978
1228, 1329, 1330, 1355, 1354, 1954, 1955, 1980, 1979
1229, 1330, 1331, 1356, 1355, 1955, 1956, 1981, 1980
1230, 1331, 1332, 1357, 1356, 1956, 1957, 1982, 1981
1231, 1332, 1333, 1358, 1357, 1957, 1958, 1983, 1982
1232, 1333, 1334, 1359, 1358, 1958, 1959, 1984, 1983
1233, 1334, 1335, 1360, 1359, 1959, 1960, 1985, 1984
1234, 1335, 1336, 1361, 1360, 1960, 1961, 1986, 1985
1235, 1336, 1337, 1362, 1361, 1961, 1962, 1987, 1986
1236, 1337, 1338, 1363, 1362, 1962, 1963, 1988, 1987
1237, 1338, 1339, 1364, 1363, 1963, 1964, 1989, 1988
1238, 1339, 1340, 1365, 1364, 1964, 1965, 1990, 1989
1239, 1340, 1341, 1366, 1365, 1965, 1966, 1991, 1990
1240, 1341, 1342, 1367, 1366, 1966, 1967, 1992, 1991
1241, 1342, 1343, 1368, 1367, 1967, 1968, 1993, 1992
1242, 1343, 1344, 1369, 1368, 1968, 1969, 1994, 1993
1243, 1344, 1345, 1370, 1369, 1969, 1970, 1995, 1994
1244, 1345, 1346, 1371, 1370, 1970, 1971, 1996, 1995
1245, 1346, 1347, 1372, 1371, 1971, 1972, 1997, 1996
1246, 1347, 1348, 1373, 1372, 1972, 1973, 1998, 1997
1247, 1348, 1349, 1374, 1373, 1973, 1974, 1999, 1998
1248, 1349, 1350, 1375, 1374, 1974, 1975, 2000, 1999
1249, 1351, 1352, 1377, 1376, 1976, 1977, 2002, 2001
1250, 1352, 1353, 1378, 1377, 1977, 1978, 2003, 2002
1251, 1353, 1354, 1379, 1378, 1978, 1979, 2004, 2003
1252, 1354, 1355, 1380, 1379, 1979, 1980, 2005, 2004
1253, 1355, 1356, 1381, 1380, 1980, 1981, 2006, 2005
1254, 1356, 1357, 1382, 1381, 1981, 1982, 2007, 2006
1255, 1357, 1358, 1383, 1382, 1982, 1983, 2008, 2007
1256, 1358, 1359, 1384, 1383, 1983, 1984, 2009, 2008
1257, 1359, 1360, 1385, 1384, 1984, 1985, 2010, 2009
1258, 1360, 1361, 1386, 1385, 1985, 1986, 2011, 2010
1259, 1361, 1362, 1387, 1386, 1986, 1987, 2012, 2011
1260, 1362, 1363, 1388, 1387, 1987, 1988, 2013, 2012
1261, 1363, 1364, 1389, 1388, 1988, 1989, 2014, 2013
1262, 1364, 1365, 1390, 1389, 1989, 1990, 2015, 2014
1263, 1365, 1366, 1391, 1390, 1990, 1991, 2016, 2015
1264, 1366, 1367, 1392, 1391, 1991, 1992, 2017, 2016
1265, 1367, 1368, 1393, 1392, 1992, 1993, 2018, 2017
1266, 1368, 1369, 1394, 1393, 1993, 1994, 2019, 2018
1267, 1369, 1370, 1395, 1394, 1994, 1995, 2020, 2019
1268, 1370, 1371, 1396, 1395, 1995, 1996, 2021, 2020
1269, 1371, 1372, 1397, 1396, 1996, 1997, 2022, 2021
1270, 1372, 1373, 1398, 1397, 1997, 1998, 2023, 2022
1271, 1373, 1374, 1399, 1398, 1998, 1999, 2024, 2023
1272, 1374, 1375, 1400, 1399, 1999, 2000, 2025, 2024
1273, 1376, 1377, 1402, 1401, 2001, 2002, 2027, 2026
1274, 1377, 1378, 1403, 1402, 2002, 2003, 2028, 2027
1275, 1378, 1379, 1404, 1403, 2003, 2004, 2029, 2028
1276, 1379, 1380, 1405, 1404, 2004, 2005, 2030, 2029
1277, 1380, 1381, 1406, 1405, 2005, 2006, 2031, 2030
1278, 1381, 1382, 1407, 1406, 2006, 2007, 2032, 2031
1279, 1382, 1383, 1408, 1407, 2007, 2008, 2033, 2032
1280, 1383, 1384, 1409, 1408, 2008, 2009, 2034, 2033
1281, 1384, 1385, 1410, 1409, 2009, 2010, 2035, 2034
1282, 1385, 1386, 1411, 1410, 2010, 2011, 2036, 2035
1283, 1386, 1387, 1412, 1411, 2011, 2012, 2037, 2036
1284, 1387, 1388, 1413, 1412, 2012, 2013, 2038, 2037
1285, 1388, 1389, 1414, 1413, 2013, 2014, 2039, 2038
1286, 1389, 1390, 1415, 1414, 2014, 2015, 2040, 2039
1287, 1390, 1391, 1416, 1415, 2015, 2016, 2041, 2040
1288, 1391, 1392, 1417, 1416, 2016, 2017, 2042, 2041
1289, 1392, 1393, 1418, 1417, 2017, 2018, 2043, 2042
1290, 1393, 1394, 1419, 1418, 2018, 2019, 2044, 2043
1291, 1394, 1395, 1420, 1419, 2019, 2020, 2045, 2044
1292, 1395, 1396, 1421, 1420, 2020, 2021, 2046, 2045
1293, 1396, 1397, 1422, 1421, 2021, 2022, 2047, 2046
1294, 1397, 1398, 1423, 1422, 2022, 2023, 2048, 2047
1295, 1398, 1399, 1424, 1423, 2023, 2024, 2049, 2048
1296, 1399, 1400, 1425, 1424, 2024, 2025, 2050, 2049
1297, 1401, 1402, 1427, 1426, 2026, 2027, 2052, 2051
1298, 1402, 1403, 1428, 1427, 2027, 2028, 2053, 2052
1299, 1403, 1404, 1429, 1428, 2028, 2029, 2054, 2053
1300, 1404, 1405, 1430, 1429, 2029, 2030, 2055, 2054
1301, 1405, 1406, 1431, 1430, 2030, 2031, 2056, 2055
1302, 1406, 1407, 1432, 1431, 2031, 2032, 2057, 2056
1303, 1407, 1408, 1433, 1432, 2032, 2033, 2058, 2057
1304, 1408, 1409, 1434, 1433, 2033, 2034, 2059, 2058
1305, 1409, 1410, 1435, 1434, 2034, 2035, 2060, 2059
1306, 1410, 1411, 1436, 1435, 2035, 2036, 2061, 2060
1307, 1411, 1412, 1437, 1436, 2036, 2037, 2062, 2061
1308, 1412, 1413, 1438, 1437, 2037, 2038, 2063, 2062
1309, 1413, 1414, 1439, 1438, 2038, 2039, 2064, 2063
1310, 1414, 1415, 1440, 1439, 2039, 2040, 2065, 2064
1311, 1415, 1416, 1441, 1440, 2040, 2041, 2066, 2065
1312, 1416, 1417, 1442, 1441, 2041, 2042, 2067, 2066
1313, 1417, 1418, 1443, 1442, 2042, 2043, 2068, 2067
1314, 1418, 1419, 1444, 1443, 2043, 2044, 2069, 2068
1315, 1419, 1420, 1445, 1444, 2044, 2045, 2070, 2069
1316, 1420, 1421, 1446, 1445, 2045, 2046, 2071, 2070
1317, 1421, 1422, 1447, 1446, 2046, 2047, 2072, 2071
1318, 1422, 1423, 1448, 1447, 2047, 2048, 2073, 2072
1319, 1423, 1424, 1449, 1448, 2048, 2049, 2074, 2073
1320, 1424, 1425, 1450, 1449, 2049, 2050, 2075, 2074
1321, 1426, 1427, 1452, 1451, 2051, 2052, 2077, 2076
1322, 1427, 1428, 1453, 1452, 2052, 2053, 2078, 2077
1323, 1428, 1429, 1454, 1453, 2053, 2054, 2079, 2078
1324, 1429, 1430, 1455, 1454, 2054, 2055, 2080, 2079
1325, 1430, 1431, 1456, 1455, 2055, 2056, 2081, 2080
1326, 1431, 1432, 1457, 1456, 2056, 2057, 2082, 2081
1327, 1432, 1433, 1458, 1457, 2057, 2058, 2083, 2082
1328, 1433, 1434, 1459, 1458, 2058, 2059, 2084, 2083
1329, 1434, 1435, 1460, 1459, 2059, 2060, 2085, 2084
1330, 1435, 1436, 1461, 1460, 2060, 2061, 2086, 2085
1331, 1436, 1437, 1462, 1461, 2061, 2062, 2087, 2086
1332, 1437, 1438, 1463, 1462, 2062, 2063, 2088, 2087
1333, 1438, 1439, 1464, 1463, 2063, 2064, 2089, 2088
1334, 1439, 1440, 1465, 1464, 2064, 2065, 2090, 2089
1335, 1440, 1441, 1466, 1465, 2065, 2066, 2091, 2090
1336, 1441, 1442, 1467, 1466, 2066, 2067, 2092, 2091
1337, 1442, 1443, 1468, 1467, 2067, 2068, 2093, 2092
1338, 1443, 1444, 1469, 1468, 2068, 2069, 2094, 2093
1339, 1444, 1445, 1470, 1469, 2069, 2070, 2095, 2094
1340, 1445, 1446, 1471, 1470, 2070, 2071, 2096, 2095
1341, 1446, 1447, 1472, 1471, 2071, 2072, 2097, 2096
1342, 1447, 1448, 1473, 1472, 2072, 2073, 2098, 2097
1343, 1448, 1449, 1474, 1473, 2073, 2074, 2099, 2098
1344, 1449, 1450, 1475, 1474, 2074, 2075, 2100, 2099
1345, 1451, 1452, 1477, 1476, 2076, 2077, 2102, 2101
1346, 1452, 1453, 1478, 1477, 2077, 2078, 2103, 2102
1347, 1453, 1454, 1479, 1478, 2078, 2079, 2104, 2103
1348, 1454, 1455, 1480, 1479, 2079, 2080, 2105, 2104
1349, 1455, 1456, 1481, 1480, 2080, 2081, 2106, 2105
1350, 1456, 1457, 1482, 1481, 2081, 2082, 2107, 2106
1351, 1457, 1458, 1483, 1482, 2082, 2083, 2108, 2107
1352, 1458, 1459, 1484, 1483, 2083, 2084, 2109, 2108
1353, 1459, 1460, 1485, 1484, 2084, 2085, 2110, 2109
1354, 1460, 1461, 1486, 1485, 2085, 2086, 2111, 2110
1355, 1461, 1462, 1487, 1486, 2086, 2087, 2112, 2111
1356, 1462, 1463, 1488, 1487, 2087, 2088, 2113, 2112
1357, 1463, 1464, 1489, 1488, 2088, 2089, 2114, 2113
1358, 1464, 1465, 1490, 1489, 2089, 2090, 2115, 2114
1359, 1465, 1466, 1491, 1490, 2090, 2091, 2116, 2115
1360, 1466, 1467, 1492, 1491, 2091, 2092, 2117, 2116
1361, 1467, 1468, 1493, 1492, 2092, 2093, 2118, 2117
1362, 1468, 1469, 1494, 1493, 2093, 2094, 2119, 2118
1363, 1469, 1470, 1495, 1494, 2094, 2095, 2120, 2119
1364, 1470, 1471, 1496, 1495, 2095, 2096, 2121, 2120
1365, 1471, 1472, 1497, 1496, 2096, 2097, 2122, 2121
1366, 1472, 1473, 1498, 1497, 2097, 2098, 2123, 2122
1367, 1473, 1474, 1499, 1498, 2098, 2099, 2124, 2123
1368, 1474, 1475, 1500, 1499, 2099, 2100, 2125, 2124
1369, 1476, 1477, 1502, 1501, 2101, 2102, 2127, 2126
1370, 1477, 1478, 1503, 1502, 2102, 2103, 2128, 2127
1371, 1478, 1479, 1504, 1503, 2103, 2104, 2129, 2128
1372, 1479, 1480, 1505, 1504, 2104, 2105, 2130, 2129
1373, 1480, 1481, 1506, 1505, 2105, 2106, 2131, 2130
1374, 1481, 1482, 1507, 1506, 2106, 2107, 2132, 2131
1375, 1482, 1483, 1508, 1507, 2107, 2108, 2133, 2132
1376, 1483, 1484, 1509, 1508, 2108, 2109, 2134, 2133
1377, 1484, 1485, 1510, 1509, 2109, 2110, 2135, 2134
1378, 1485, 1486, 1511, 1510, 2110, 2111, 2136, 2135
1379, 1486, 1487, 1512, 1511, 2111, 2112, 2137, 2136
1380, 1487, 1488, 1513, 1512, 2112, 2113, 2138, 2137
1381, 1488, 1489, 1514, 1513, 2113, 2114, 2139, 2138
1382, 1489, 1490, 1515, 1514, 2114, 2115, 2140, 2139
1383, 1490, 1491, 1516, 1515, 2115, 2116, 2141, 2140
1384, 1491, 1492, 1517, 1516, 2116, 2117, 2142, 2141
1385, 1492, 1493, 1518, 1517, 2117, 2118, 2143, 2142
1386, 1493, 1494, 1519, 1518, 2118, 2119, 2144, 2143
1387, 1494, 1495, 1520, 1519, 2119, 2120, 2145, 2144
1388, 1495, 1496, 1521, 1520, 2120, 2121, 2146, 2145
1389, 1496, 1497, 1522, 1521, 2121, 2122, 2147, 2146
1390, 1497, 1498, 1523, 1522, 2122, 2123, 2148, 2147
1391, 1498, 1499, 1524, 1523, 2123, 2124, 2149, 2148
1392, 1499, 1500, 1525, 1524, 2124, 2125, 2150, 2149
1393, 1501, 1502, 1527, 1526, 2126, 2127, 2152, 2151
1394, 1502, 1503, 1528, 1527, 2127, 2128, 2153, 2152
1395, 1503, 1504, 1529, 1528, 2128, 2129, 2154, 2153
1396, 1504, 1505, 1530, 1529, 2129, 2130, 2155, 2154
1397, 1505, 1506, 1531, 1530, 2130, 2131, 2156, 2155
1398, 1506, 1507, 1532, 1531, 2131, 2132, 2157, 2156
1399, 1507, 1508, 1533, 1532, 2132, 2133, 2158, 2157
1400, 1508, 1509, 1534, 1533, 2133, 2134, 2159, 2158
1401, 1509, 1510, 1535, 1534, 2134, 2135, 2160, 2159
1402, 1510, 1511, 1536, 1535, 2135, 2136, 2161, 2160
1403, 1511, 1512, 1537, 1536, 2136, 2137, 2162, 2161
1404, 1512, 1513, 1538, 1537, 2137, 2138, 2163, 2162
1405, 1513, 1514, 1539, 1538, 2138, 2139, 2164, 2163
1406, 1514, 1515, 1540, 1539, 2139, 2140, 2165, 2164
1407, 1515, 1516, 1541, 1540, 2140, 2141, 2166, 2165
1408, 1516, 1517, 1542, 1541, 2141, 2142, 2167, 2166
1409, 1517, 1518, 1543, 1542, 2142, 2143, 2168, 2167
1410, 1518, 1519, 1544, 1543, 2143, 2144, 2169, 2168
1411, 1519, 1520, 1545, 1544, 2144, 2145, 2170, 2169
1412, 1520, 1521, 1546, 1545, 2145, 2146, 2171, 2170
1413, 1521, 1522, 1547, 1546, 2146, 2147, 2172, 2171
1414, 1522, 1523, 1548, 1547, 2147, 2148, 2173, 2172
1415, 1523, 1524, 1549, 1548, 2148, 2149, 2174, 2173
1416, 1524, 1525, 1550, 1549, 2149, 2150, 2175, 2174
1417, 1526, 1527, 1552, 1551, 2151, 2152, 2177, 2176
1418, 1527, 1528, 1553, 1552, 2152, 2153, 2178, 2177
1419, 1528, 1529, 1554, 1553, 2153, 2154, 2179, 2178
1420, 1529, 1530, 1555, 1554, 2154, 2155, 2180, 2179
1421, 1530, 1531, 1556, 1555, 2155, 2156, 2181, 2180
1422, 1531, 1532, 1557, 1556, 2156, 2157, 2182, 2181
1423, 1532, 1533, 1558, 1557, 2157, 2158, 2183, 2182
1424, 1533, 1534, 1559, 1558, 2158, 2159, 2184, 2183
1425, 1534, 1535, 1560, 1559, 2159, 2160, 2185, 2184
1426, 1535, 1536, 1561, 1560, 2160, 2161, 2186, 2185
1427, 1536, 1537, 1562, 1561, 2161, 2162, 2187, 2186
1428, 1537, 1538, 1563, 1562, 2162, 2163, 2188, 2187
1429, 1538, 1539, 1564, 1563, 2163, 2164, 2189, 2188
1430, 1539, 1540, 1565, 1564, 2164, 2165, 2190, 2189
1431, 1540, 1541, 1566, 1565, 2165, 2166, 2191, 2190
1432, 1541, 1542, 1567, 1566, 2166, 2167, 2192, 2191
1433, 1542, 1543, 1568, 1567, 2167, 2168, 2193, 2192
1434, 1543, 1544, 1569, 1568, 2168, 2169, 2194, 2193
1435, 1544, 1545, 1570, 1569, 2169, 2170, 2195, 2194
1436, 1545, 1546, 1571, 1570, 2170, 2171, 2196, 2195
1437, 1546, 1547, 1572, 1571, 2171, 2172, 2197, 2196
1438, 1547, 1548, 1573, 1572, 2172, 2173, 2198, 2197
1439, 1548, 1549, 1574, 1573, 2173, 2174, 2199, 2198
1440, 1549, 1550, 1575, 1574, 2174, 2175, 2200, 2199
1441, 1551, 1552, 1577, 1576, 2176, 2177, 2202, 2201
1442, 1552, 1553, 1578, 1577, 2177, 2178, 2203, 2202
1443, 1553, 1554, 1579, 1578, 2178, 2179, 2204, 2203
1444, 1554, 1555, 1580, 1579, 2179, 2180, 2205, 2204
1445, 1555, 1556, 1581, 1580, 2180, 2181, 2206, 2205
1446, 1556, 1557, 1582, 1581, 2181, 2182, 2207, 2206
1447, 1557, 1558, 1583, 1582, 2182, 2183, 2208, 2207
1448, 1558, 1559, 1584, 1583, 2183, 2184, 2209, 2208
1449, 1559, 1560, 1585, 1584, 2184, 2185, 2210, 2209
1450, 1560, 1561, 1586, 1585, 2185, 2186, 2211, 2210
1451, 1561, 1562, 1587, 1586, 2186, 2187, 2212, 2211
1452, 1562, 1563, 1588, 1587, 2187, 2188, 2213, 2212
1453, 1563, 1564, 1589, 1588, 2188, 2189, 2214, 2213
1454, 1564, 1565, 1590, 1589, 2189, 2190, 2215, 2214
1455, 1565, 1566, 1591, 1590, 2190, 2191, 2216, 2215
1456, 1566, 1567, 1592, 1591, 2191, 2192, 2217, 2216
1457, 1567, 1568, 1593, 1592, 2192, 2193, 2218, 2217
1458, 1568, 1569, 1594, 1593, 2193, 2194, 2219, 2218
1459, 1569, 1570, 1595, 1594, 2194, 2195, 2220, 2219
1460, 1570, 1571, 1596, 1595, 2195, 2196, 2221, 2220
1461, 1571, 1572, 1597, 1596, 2196, 2197, 2222, 2221
1462, 1572, 1573, 1598, 1597, 2197, 2198, 2223, 2222
1463, 1573, 1574, 1599, 1598, 2198, 2199, 2224, 2223
1464, 1574, 1575, 1600, 1599, 2199, 2200, 2225, 2224
1465, 1576, 1577, 1602, 1601, 2201, 2202, 2227, 2226
1466, 1577, 1578, 1603, 1602, 2202, 2203, 2228, 2227
1467, 1578, 1579, 1604, 1603, 2203, 2204, 2229, 2228
1468, 1579, 1580, 1605, 1604, 2204, 2205, 2230, 2229
1469, 1580, 1581, 1606, 1605, 2205, 2206, 2231, 2230
1470, 1581, 1582, 1607, 1606, 2206, 2207, 2232, 2231
1471, 1582, 1583, 1608, 1607, 2207, 2208, 2233, 2232
1472, 1583, 1584, 1609, 1608, 2208, 2209, 2234, 2233
1473, 1584, 1585, 1610, 1609, 2209, 2210, 2235, 2234
1474, 1585, 1586, 1611, 1610, 2210, 2211, 2236, 2235
1475, 1586, 1587, 1612, 1611, 2211, 2212, 2237, 2236
1476, 1587, 1588, 1613, 1612, 2212, 2213, 2238, 2237
1477, 1588, 1589, 1614, 1613, 2213, 2214, 2239, 2238
1478, 1589, 1590, 1615, 1614, 2214, 2215, 2240, 2239
1479, 1590, 1591, 1616, 1615, 2215, 2216, 2241, 2240
1480, 1591, 1592, 1617, 1616, 2216, 2217, 2242, 2241
1481, 1592, 1593, 1618, 1617, 2217, 2218, 2243, 2242
1482, 1593, 1594, 1619, 1618, 2218, 2219, 2244, 2243
1483, 1594, 1595, 1620, 1619, 2219, 2220, 2245, 2244
1484, 1595, 1596, 1621, 1620, 2220, 2221, 2246, 2245
1485, 1596, 1597, 1622, 1621, 2221, 2222, 2247, 2246
1486, 1597, 1598, 1623, 1622, 2222, 2223, 2248, 2247
1487, 1598, 1599, 1624, 1623, 2223, 2224, 2249, 2248
1488, 1599, 1600, 1625, 1624, 2224, 2225, 2250, 2249
1489, 1601, 1602, 1627, 1626, 2226, 2227, 2252, 2251
1490, 1602, 1603, 1628, 1627, 2227, 2228, 2253, 2252
1491, 1603, 1604, 1629, 1628, 2228, 2229, 2254, 2253
1492, 1604, 1605, 1630, 1629, 2229, 2230, 2255, 2254
1493, 1605, 1606, 1631, 1630, 2230, 2231, 2256, 2255
1494, 1606, 1607, 1632, 1631, 2231, 2232, 2257, 2256
1495, 1607, 1608, 1633, 1632, 2232, 2233, 2258, 2257
1496, 1608, 1609, 1634, 1633, 2233, 2234, 2259, 2258
1497, 1609, 1610, 1635, 1634, 2234, 2235, 2260, 2259
1498, 1610, 1611, 1636, 1635, 2235, 2236, 2261, 2260
1499, 1611, 1612, 1637, 1636, 2236, 2237, 2262, 2261
1500, 1612, 1613, 1638, 1637, 2237, 2238, 2263, 2262
1501, 1613, 1614, 1639, 1638, 2238, 2239, 2264, 2263
1502, 1614, 1615, 1640, 1639, 2239, 2240, 2265, 2264
1503, 1615, 1616, 1641, 1640, 2240, 2241, 2266, 2265
1504, 1616, 1617, 1642, 1641, 2241, 2242, 2267, 2266
1505, 1617, 1618, 1643, 1642, 2242, 2243, 2268, 2267
1506, 1618, 1619, 1644, 1643, 2243, 2244, 2269, 2268
1507, 1619, 1620, 1645, 1644, 2244, 2245, 2270, 2269
1508, 1620, 1621, 1646, 1645, 2245, 2246, 2271, 2270
1509, 1621, 1622, 1647, 1646, 2246, 2247, 2272, 2271
1510, 1622, 1623, 1648, 1647, 2247, 2248, 2273, 2272
1511, 1623, 1624, 1649, 1648, 2248, 2249, 2274, 2273
1512, 1624, 1625, 1650, 1649, 2249, 2250, 2275, 2274
1513, 1626, 1627, 1652, 1651, 2251, 2252, 2277, 2276
1514, 1627, 1628, 1653, 1652, 2252, 2253, 2278, 2277
1515, 1628, 1629, 1654, 1653, 2253, 2254, 2279, 2278
1516, 1629, 1630, 1655, 1654, 2254, 2255, 2280, 2279
1517, 1630, 1631, 1656, 1655, 2255, 2256, 2281, 2280
1518, 1631, 1632, 1657, 1656, 2256, 2257, 2282, 2281
1519, 1632, 1633, 1658, 1657, 2257, 2258, 2283, 2282
1520, 1633, 1634, 1659, 1658, 2258, 2259, 2284, 2283
1521, 1634, 1635, 1660, 1659, 2259, 2260, 2285, 2284
1522, 1635, 1636, 1661, 1660, 2260, 2261, 2286, 2285
1523, 1636, 1637, 1662, 1661, 2261, 2262, 2287, 2286
1524, 1637, 1638, 1663, 1662, 2262, 2263, 2288, 2287
1525, 1638, 1639, 1664, 1663, 2263, 2264, 2289, 2288
1526, 1639, 1640, 1665, 1664, 2264, 2265, 2290, 2289
1527, 1640, 1641, 1666, 1665, 2265, 2266, 2291, 2290
1528, 1641, 1642, 1667, 1666, 2266, 2267, 2292, 2291
1529, 1642, 1643, 1668, 1667, 2267, 2268, 2293, 2292
1530, 1643, 1644, 1669, 1668, 2268, 2269, 2294, 2293
1531, 1644, 1645, 1670, 1669, 2269, 2270, 2295, 2294
1532, 1645, 1646, 1671, 1670, 2270, 2271, 2296, 2295
1533, 1646, 1647, 1672, 1671, 2271, 2272, 2297, 2296
1534, 1647, 1648, 1673, 1672, 2272, 2273, 2298, 2297
1535, 1648, 1649, 1674, 1673, 2273, 2274, 2299, 2298
1536, 1649, 1650, 1675, 1674, 2274, 2275, 2300, 2299
1537, 1651, 1652, 1677, 1676, 2276, 2277, 2302, 2301
1538, 1652, 1653, 1678, 1677, 2277, 2278, 2303, 2302
1539, 1653, 1654, 1679, 1678, 2278, 2279, 2304, 2303
1540, 1654, 1655, 1680, 1679, 2279, 2280, 2305, 2304
1541, 1655, 1656, 1681, 1680, 2280, 2281, 2306, 2305
1542, 1656, 1657, 1682, 1681, 2281, 2282, 2307, 2306
1543, 1657, 1658, 1683, 1682, 2282, 2283, 2308, 2307
1544, 1658, 1659, 1684, 1683, 2283, 2284, 2309, 2308
1545, 1659, 1660, 1685, 1684, 2284, 2285, 2310, 2309
1546, 1660, 1661, 1686, 1685, 2285, 2286, 2311, 2310
1547, 1661, 1662, 1687, 1686, 2286, 2287, 2312, 2311
1548, 1662, 1663, 1688, 1687, 2287, 2288, 2313, 2312
1549, 1663, 1664, 1689, 1688, 2288, 2289, 2314, 2313
1550, 1664, 1665, 1690, 1689, 2289, 2290, 2315, 2314
1551, 1665, 1666, 1691, 1690, 2290, 2291, 2316, 2315
1552, 1666, 1667, 1692, 1691, 2291, 2292, 2317, 2316
1553, 1667, 1668, 1693, 1692, 2292, 2293, 2318, 2317
1554, 1668, 1669, 1694, 1693, 2293, 2294, 2319, 2318
1555, 1669, 1670, 1695, 1694, 2294, 2295, 2320, 2319
1556, 1670, 1671, 1696, 1695, 2295, 2296, 2321, 2320
1557, 1671, 1672, 1697, 1696, 2296, 2297, 2322, 2321
1558, 1672, 1673, 1698, 1697, 2297, 2298, 2323, 2322
1559, 1673, 1674, 1699, 1698, 2298, 2299, 2324, 2323
1560, 1674, 1675, 1700, 1699, 2299, 2300, 2325, 2324
1561, 1676, 1677, 1702, 1701, 2301, 2302, 2327, 2326
1562, 1677, 1678, 1703, 1702, 2302, 2303, 2328, 2327
1563, 1678, 1679, 1704, 1703, 2303, 2304, 2329, 2328
1564, 1679, 1680, 1705, 1704, 2304, 2305, 2330, 2329
1565, 1680, 1681, 1706, 1705, 2305, 2306, 2331, 2330
1566, 1681, 1682, 1707, 1706, 2306, 2307, 2332, 2331
1567, 1682, 1683, 1708, 1707, 2307, 2308, 2333, 2332
1568, 1683, 1684, 1709, 1708, 2308, 2309, 2334, 2333
1569, 1684, 1685, 1710, 1709, 2309, 2310, 2335, 2334
1570, 1685, 1686, 1711, 1710, 2310, 2311, 2336, 2335
1571, 1686, 1687, 1712, 1711, 2311, 2312, 2337, 2336
1572, 1687, 1688, 1713, 1712, 2312, 2313, 2338, 2337
1573, 1688, 1689, 1714, 1713, 2313, 2314, 2339, 2338
1574, 1689, 1690, 1715, 1714, 2314, 2315, 2340, 2339
1575, 1690, 1691, 1716, 1715, 2315, 2316, 2341, 2340
1576, 1691, 1692, 1717, 1716, 2316, 2317, 2342, 2341
1577, 1692, 1693, 1718, 1717, 2317, 2318, 2343, 2342
1578, 1693, 1694, 1719, 1718, 2318, 2319, 2344, 2343
1579, 1694, 1695, 1720, 1719, 2319, 2320, 2345, 2344
1580, 1695, 1696, 1721, 1720, 2320, 2321, 2346, 2345
1581, 1696, 1697, 1722, 1721, 2321, 2322, 2347, 2346
1582, 1697, 1698, 1723, 1722, 2322, 2323, 2348, 2347
1583, 1698, 1699, 1724, 1723, 2323, 2324, 2349, 2348
1584, 1699, 1700, 1725, 1724, 2324, 2325, 2350, 2349
1585, 1701, 1702, 1727, 1726, 2326, 2327, 2352, 2351
1586, 1702, 1703, 1728, 1727, 2327, 2328, 2353, 2352
1587, 1703, 1704, 1729, 1728, 2328, 2329, 2354, 2353
1588, 1704, 1705, 1730, 1729, 2329, 2330, 2355, 2354
1589, 1705, 1706, 1731, 1730, 2330, 2331, 2356, 2355
1590, 1706, 1707, 1732, 1731, 2331, 2332, 2357, 2356
1591, 1707, 1708, 1733, 1732, 2332, 2333, 2358, 2357
1592, 1708, 1709, 1734, 1733, 2333, 2334, 2359, 2358
1593, 1709, 1710, 1735, 1734, 2334, 2335, 2360, 2359
1594, 1710, 1711, 1736, 1735, 2335, 2336, 2361, 2360
1595, 1711, 1712, 1737, 1736, 2336, 2337, 2362, 2361
1596, 1712, 1713, 1738, 1737, 2337, 2338, 2363, 2362
1597, 1713, 1714, 1739, 1738, 2338, 2339, 2364, 2363
1598, 1714, 1715, 1740, 1739, 2339, 2340, 2365, 2364
1599, 1715, 1716, 1741, 1740, 2340, 2341, 2366, 2365
1600, 1716, 1717, 1742, 1741, 2341, 2342, 2367, 2366
1601, 1717, 1718, 1743, 1742, 2342, 2343, 2368, 2367
1602, 1718, 1719, 1744, 1743, 2343, 2344, 2369, 2368
1603, 1719, 1720, 1745, 1744, 2344, 2345, 2370, 2369
1604, 1720, 1721, 1746, 1745, 2345, 2346, 2371, 2370
1605, 1721, 1722, 1747, 1746, 2346, 2347, 2372, 2371
1606, 1722, 1723, 1748, 1747, 2347, 2348, 2373, 2372
1607, 1723, 1724, 1749, 1748, 2348, 2349, 2374, 2373
1608, 1724, 1725, 1750, 1749, 2349, 2350, 2375, 2374
1609, 1726, 1727, 1752, 1751, 2351, 2352, 2377, 2376
1610, 1727, 1728, 1753, 1752, 2352, 2353, 2378, 2377
1611, 1728, 1729, 1754, 1753, 2353, 2354, 2379, 2378
1612, 1729, 1730, 1755, 1754, 2354, 2355, 2380, 2379
1613, 1730, 1731, 1756, 1755, 2355, 2356, 2381, 2380
1614, 1731, 1732, 1757, 1756, 2356, 2357, 2382, 2381
1615, 1732, 1733, 1758, 1757, 2357, 2358, 2383, 2382
1616, 1733, 1734, 1759, 1758, 2358, 2359, 2384, 2383
1617, 1734, 1735, 1760, 1759, 2359, 2360, 2385, 2384
1618, 1735, 1736, 1761, 1760, 2360, 2361, 2386, 2385
1619, 1736, 1737, 1762, 1761, 2361, 2362, 2387, 2386
1620, 1737, 1738, 1763, 1762, 2362, 2363, 2388, 2387
1621, 1738, 1739, 1764, 1763, 2363, 2364, 2389, 2388
1622, 1739, 1740, 1765, 1764, 2364, 2365, 2390, 2389
1623, 1740, 1741, 1766, 1765, 2365, 2366, 2391, 2390
1624, 1741, 1742, 1767, 1766, 2366, 2367, 2392, 2391
1625, 1742, 1743, 1768, 1767, 2367, 2368, 2393, 2392
1626, 1743, 1744, 1769, 1768, 2368, 2369, 2394, 2393
1627, 1744, 1745, 1770, 1769, 2369, 2370, 2395, 2394
1628, 1745, 1746, 1771, 1770, 2370, 2371, 2396, 2395
1629, 1746, 1747, 1772, 1771, 2371, 2372, 2397, 2396
1630, 1747, 1748, 1773, 1772, 2372, 2373, 2398, 2397
1631, 1748, 1749, 1774, 1773, 2373, 2374, 2399, 2398
1632, 1749, 1750, 1775, 1774, 2374, 2375, 2400, 2399
1633, 1751, 1752, 1777, 1776, 2376, 2377, 2402, 2401
1634, 1752, 1753, 1778, 1777, 2377, 2378, 2403, 2402
1635, 1753, 1754, 1779, 1778, 2378, 2379, 2404, 2403
1636, 1754, 1755, 1780, 1779, 2379, 2380, 2405, 2404
1637, 1755, 1756, 1781, 1780, 2380, 2381, 2406, 2405
1638, 1756, 1757, 1782, 1781, 2381, 2382, 2407, 2406
1639, 1757, 1758, 1783, 1782, 2382, 2383, 2408, 2407
1640, 1758, 1759, 1784, 1783, 2383, 2384, 2409, 2408
1641, 1759, 1760, 1785, 1784, 2384, 2385, 2410, 2409
1642, 1760, 1761, 1786, 1785, 2385, 2386, 2411, 2410
1643, 1761, 1762, 1787, 1786, 2386, 2387, 2412, 2411
1644, 1762, 1763, 1788, 1787, 2387, 2388, 2413, 2412
1645, 1763, 1764, 1789, 1788, 2388, 2389, 2414, 2413
1646, 1764, 1765, 1790, 1789, 2389, 2390, 2415, 2414
1647, 1765, 1766, 1791, 1790, 2390, 2391, 2416, 2415
1648, 1766, 1767, 1792, 1791, 2391, 2392, 2417, 2416
1649, 1767, 1768, 1793, 1792, 2392, 2393, 2418, 2417
1650, 1768, 1769, 1794, 1793, 2393, 2394, 2419, 2418
1651, 1769, 1770, 1795, 1794, 2394, 2395, 2420, 2419
1652, 1770, 1771, 1796, 1795, 2395, 2396, 2421, 2420
1653, 1771, 1772, 1797, 1796, 2396, 2397, 2422, 2421
1654, 1772, 1773, 1798, 1797, 2397, 2398, 2423, 2422
1655, 1773, 1774, 1799, 1798, 2398, 2399, 2424, 2423
1656, 1774, 1775, 1800, 1799, 2399, 2400, 2425, 2424
1657, 1776, 1777, 1802, 1801, 2401, 2402, 2427, 2426
1658, 1777, 1778, 1803, 1802, 2402, 2403, 2428, 2427
1659, 1778, 1779, 1804, 1803, 2403, 2404, 2429, 2428
1660, 1779, 1780, 1805, 1804, 2404, 2405, 2430, 2429
1661, 1780, 1781, 1806, 1805, 2405, 2406, 2431, 2430
1662, 1781, 1782, 1807, 1806, 2406, 2407, 2432, 2431
1663, 1782, 1783, 1808, 1807, 2407, 2408, 2433, 2432
1664, 1783, 1784, 1809, 1808, 2408, 2409, 2434, 2433
1665, 1784, 1785, 1810, 1809, 2409, 2410, 2435, 2434
1666, 1785, 1786, 1811, 1810, 2410, 2411, 2436, 2435
1667, 1786, 1787, 1812, 1811, 2411, 2412, 2437, 2436
1668, 1787, 1788, 1813, 1812, 2412, 2413, 2438, 2437
1669, 1788, 1789, 1814, 1813, 2413, 2414, 2439, 2438
1670, 1789, 1790, 1815, 1814, 2414, 2415, 2440, 2439
1671, 1790, 1791, 1816, 1815, 2415, 2416, 2441, 2440
1672, 1791, 1792, 1817, 1816, 2416, 2417, 2442, 2441
1673, 1792, 1793, 1818, 1817, 2417, 2418, 2443, 2442
1674, 1793, 1794, 1819, 1818, 2418, 2419, 2444, 2443
1675, 1794, 1795, 1820, 1819, 2419, 2420, 2445, 2444
1676, 1795, 1796, 1821, 1820, 2420, 2421, 2446, 2445
1677, 1796, 1797, 1822, 1821, 2421, 2422, 2447, 2446
1678, 1797, 1798, 1823, 1822, 2422, 2423, 2448, 2447
1679, 1798, 1799, 1824, 1823, 2423, 2424, 2449, 2448
1680, 1799, 1800, 1825, 1824, 2424, 2425, 2450, 2449
1681, 1801, 1802, 1827, 1826, 2426, 2427, 2452, 2451
1682, 1802, 1803, 1828, 1827, 2427, 2428, 2453, 2452
1683, 1803, 1804, 1829, 1828, 2428, 2429, 2454, 2453
1684, 1804, 1805, 1830, 1829, 2429, 2430, 2455, 2454
1685, 1805, 1806, 1831, 1830, 2430, 2431, 2456, 2455
1686, 1806, 1807, 1832, 1831, 2431, 2432, 2457, 2456
1687, 1807, 1808, 1833, 1832, 2432, 2433, 2458, 2457
1688, 1808, 1809, 1834, 1833, 2433, 2434, 2459, 2458
1689, 1809, 1810, 1835, 1834, 2434, 2435, 2460, 2459
1690, 1810, 1811, 1836, 1835, 2435, 2436, 2461, 2460
1691, 1811, 1812, 1837, 1836, 2436, 2437, 2462, 2461
1692, 1812, 1813, 1838, 1837, 2437, 2438, 2463, 2462
1693, 1813, 1814, 1839, 1838, 2438, 2439, 2464, 2463
1694, 1814, 1815, 1840, 1839, 2439, 2440, 2465, 2464
1695, 1815, 1816, 1841, 1840, 2440, 2441, 2466, 2465
1696, 1816, 1817, 1842, 1841, 2441, 2442, 2467, 2466
1697, 1817, 1818, 1843, 1842, 2442, 2443, 2468, 2467
1698, 1818, 1819, 1844, 1843, 2443, 2444, 2469, 2468
1699, 1819, 1820, 1845, 1844, 2444, 2445, 2470, 2469
1700, 1820, 1821, 1846, 1845, 2445, 2446, 2471, 2470
1701, 1821, 1822, 1847, 1846, 2446, 2447, 2472, 2471
1702, 1822, 1823, 1848, 1847, 2447, 2448, 2473, 2472
1703, 1823, 1824, 1849, 1848, 2448, 2449, 2474, 2473
1704, 1824, 1825, 1850, 1849, 2449, 2450, 2475, 2474
1705, 1826, 1827, 1852, 1851, 2451, 2452, 2477, 2476
1706, 1827, 1828, 1853, 1852, 2452, 2453, 2478, 2477
1707, 1828, 1829, 1854, 1853, 2453, 2454, 2479, 2478
1708, 1829, 1830, 1855, 1854, 2454, 2455, 2480, 2479
1709, 1830, 1831, 1856, 1855, 2455, 2456, 2481, 2480
1710, 1831, 1832, 1857, 1856, 2456, 2457, 2482, 2481
1711, 1832, 1833, 1858, 1857, 2457, 2458, 2483, 2482
1712, 1833, 1834, 1859, 1858, 2458, 2459, 2484, 2483
1713, 1834, 1835, 1860, 1859, 2459, 2460, 2485, 2484
1714, 1835, 1836, 1861, 1860, 2460, 2461, 2486, 2485
1715, 1836, 1837, 1862, 1861, 2461, 2462, 2487, 2486
1716, 1837, 1838, 1863, 1862, 2462, 2463, 2488, 2487
1717, 1838, 1839, 1864, 1863, 2463, 2464, 2489, 2488
1718, 1839, 1840, 1865, 1864, 2464, 2465, 2490, 2489
1719, 1840, 1841, 1866, 1865, 2465, 2466, 2491, 2490
1720, 1841, 1842, 1867, 1866, 2466, 2467, 2492, 2491
1721, 1842, 1843, 1868, 1867, 2467, 2468, 2493, 2492
1722, 1843, 1844, 1869, 1868, 2468, 2469, 2494, 2493
1723, 1844, 1845, 1870, 1869, 2469, 2470, 2495, 2494
1724, 1845, 1846, 1871, 1870, 2470, 2471, 2496, 2495
1725, 1846, 1847, 1872, 1871, 2471, 2472, 2497, 2496
1726, 1847, 1848, 1873, 1872, 2472, 2473, 2498, 2497
1727, 1848, 1849, 1874, 1873, 2473, 2474, 2499, 2498
1728, 1849, 1850, 1875, 1874, 2474, 2475, 2500, 2499
1729, 1876, 1877, 1902, 1901, 2501, 2502, 2527, 2526
1730, 1877, 1878, 1903, 1902, 2502, 2503, 2528, 2527
1731, 1878, 1879, 1904, 1903, 2503, 2504, 2529, 2528
1732, 1879, 1880, 1905, 1904, 2504, 2505, 2530, 2529
1733, 1880, 1881, 1906, 1905, 2505, 2506, 2531, 2530
1734, 1881, 1882, 1907, 1906, 2506, 2507, 2532, 2531
1735, 1882, 1883, 1908, 1907, 2507, 2508, 2533, 2532
1736, 1883, 1884, 1909, 1908, 2508, 2509, 2534, 2533
1737, 1884, 1885, 1910, 1909, 2509, 2510, 2535, 2534
1738, 1885, 1886, 1911, 1910, 2510, 2511, 2536, 2535
1739, 1886, 1887, 1912, 1911, 2511, 2512, 2537, 2536
1740, 1887, 1888, 1913, 1912, 2512, 2513, 2538, 2537
1741, 1888, 1889, 1914, 1913, 2513, 2514, 2539, 2538
1742, 1889, 1890, 1915, 1914, 2514, 2515, 2540, 2539
1743, 1890, 1891, 1916, 1915, 2515, 2516, 2541, 2540
1744, 1891, 1892, 1917, 1916, 2516, 2517, 2542, 2541
1745, 1892, 1893, 1918, 1917, 2517, 2518, 2543, 2542
1746, 1893, 1894, 1919, 1918, 2518, 2519, 2544, 2543
1747, 1894, 1895, 1920, 1919, 2519, 2520, 2545, 2544
1748, 1895, 1896, 1921, 1920, 2520, 2521, 2546, 2545
1749, 1896, 1897, 1922, 1921, 2521, 2522, 2547, 2546
1750, 1897, 1898, 1923, 1922, 2522, 2523, 2548, 2547
1751, 1898, 1899, 1924, 1923, 2523, 2524, 2549, 2548
1752, 1899, 1900, 1925, 1924, 2524, 2525, 2550, 2549
1753, 1901, 1902, 1927, 1926, 2526, 2527, 2552, 2551
1754, 1902, 1903, 1928, 1927, 2527, 2528, 2553, 2552
1755, 1903, 1904, 1929, 1928, 2528, 2529, 2554, 2553
1756, 1904, 1905, 1930, 1929, 2529, 2530, 2555, 2554
1757, 1905, 1906, 1931, 1930, 2530, 2531, 2556, 2555
1758, 1906, 1907, 1932, 1931, 2531, 2532, 2557, 2556
1759, 1907, 1908, 1933, 1932, 2532, 2533, 2558, 2557
1760, 1908, 1909, 1934, 1933, 2533, 2534, 2559, 2558
1761, 1909, 1910, 1935, 1934, 2534, 2535, 2560, 2559
1762, 1910, 1911, 1936, 1935, 2535, 2536, 2561, 2560
1763, 1911, 1912, 1937, 1936, 2536, 2537, 2562, 2561
1764, 1912, 1913, 1938, 1937, 2537, 2538, 2563, 2562
1765, 1913, 1914, 1939, 1938, 2538, 2539, 2564, 2563
1766, 1914, 1915, 1940, 1939, 2539, 2540, 2565, 2564
1767, 1915, 1916, 1941, 1940, 2540, 2541, 2566, 2565
1768, 1916, 1917, 1942, 1941, 2541, 2542, 2567, 2566
1769, 1917, 1918, 1943, 1942, 2542, 2543, 2568, 2567
1770, 1918, 1919, 1944, 1943, 2543, 2544, 2569, 2568
1771, 1919, 1920, 1945, 1944, 2544, 2545, 2570, 2569
1772, 1920, 1921, 1946, 1945, 2545, 2546, 2571, 2570
1773, 1921, 1922, 1947, 1946, 2546, 2547, 2572, 2571
1774, 1922, 1923, 1948, 1947, 2547, 2548, 2573, 2572
1775, 1923, 1924, 1949, 1948, 2548, 2549, 2574, 2573
1776, 1924, 1925, 1950, 1949, 2549, 2550, 2575, 2574
1777, 1926, 1927, 1952, 1951, 2551, 2552, 2577, 2576
1778, 1927, 1928, 1953, 1952, 2552, 2553, 2578, 2577
1779, 1928, 1929, 1954, 1953, 2553, 2554, 2579, 2578
1780, 1929, 1930, 1955, 1954, 2554, 2555, 2580, 2579
1781, 1930, 1931, 1956, 1955, 2555, 2556, 2581, 2580
1782, 1931, 1932, 1957, 1956, 2556, 2557, 2582, 2581
1783, 1932, 1933, 1958, 1957, 2557, 2558, 2583, 2582
1784, 1933, 1934, 1959, 1958, 2558, 2559, 2584, 2583
1785, 1934, 1935, 1960, 1959, 2559, 2560, 2585, 2584
1786, 1935, 1936, 1961, 1960, 2560, 2561, 2586, 2585
1787, 1936, 1937, 1962, 1961, 2561, 2562, 2587, 2586
1788, 1937, 1938, 1963, 1962, 2562, 2563, 2588, 2587
1789, 1938, 1939, 1964, 1963, 2563, 2564, 2589, 2588
1790, 1939, 1940, 1965, 1964, 2564, 2565, 2590, 2589
1791, 1940, 1941, 1966, 1965, 2565, 2566, 2591, 2590
1792, 1941, 1942, 1967, 1966, 2566, 2567, 2592, 2591
1793, 1942, 1943, 1968, 1967, 2567, 2568, 2593, 2592
1794, 1943, 1944, 1969, 1968, 2568, 2569, 2594, 2593
1795, 1944, 1945, 1970, 1969, 2569, 2570, 2595, 2594
1796, 1945, 1946, 1971, 1970, 2570, 2571, 2596, 2595
1797, 1946, 1947, 1972, 1971, 2571, 2572, 2597, 2596
1798, 1947, 1948, 1973, 1972, 2572, 2573, 2598, 2597
1799, 1948, 1949, 1974, 1973, 2573, 2574, 2599, 2598
1800, 1949, 1950, 1975, 1974, 2574, 2575, 2600, 2599
1801, 1951, 1952, 1977, 1976, 2576, 2577, 2602, 2601
1802, 1952, 1953, 1978, 1977, 2577, 2578, 2603, 2602
1803, 1953, 1954, 1979, 1978, 2578, 2579, 2604, 2603
1804, 1954, 1955, 1980, 1979, 2579, 2580, 2605, 2604
1805, 1955, 1956, 1981, 1980, 2580, 2581, 2606, 2605
1806, 1956, 1957, 1982, 1981, 2581, 2582, 2607, 2606
1807, 1957, 1958, 1983, 1982, 2582, 2583, 2608, 2607
1808, 1958, 1959, 1984, 1983, 2583, 2584, 2609, 2608
1809, 1959, 1960, 1985, 1984, 2584, 2585, 2610, 2609
1810, 1960, 1961, 1986, 1985, 2585, 2586, 2611, 2610
1811, 1961, 1962, 1987, 1986, 2586, 2587, 2612, 2611
1812, 1962, 1963, 1988, 1987, 2587, 2588, 2613, 2612
1813, 1963, 1964, 1989, 1988, 2588, 2589, 2614, 2613
1814, 1964, 1965, 1990, 1989, 2589, 2590, 2615, 2614
1815, 1965, 1966, 1991, 1990, 2590, 2591, 2616, 2615
1816, 1966, 1967, 1992, 1991, 2591, 2592, 2617, 2616
1817, 1967, 1968, 1993, 1992, 2592, 2593, 2618, 2617
1818, 1968, 1969, 1994, 1993, 2593, 2594, 2619, 2618
1819, 1969, 1970, 1995, 1994, 2594, 2595, 2620, 2619
1820, 1970, 1971, 1996, 1995, 2595, 2596, 2621, 2620
1821, 1971, 1972, 1997, 1996, 2596, 2597, 2622, 2621
1822, 1972, 1973, 1998, 1997, 2597, 2598, 2623, 2622
1823, 1973, 1974, 1999, 1998, 2598, 2599, 2624, 2623
1824, 1974, 1975, 2000, 1999, 2599, 2600, 2625, 2624
1825, 1976, 1977, 2002, 2001, 2601, 2602, 2627, 2626
1826, 1977, 1978, 2003, 2002, 2602, 2603, 2628, 2627
1827, 1978, 1979, 2004, 2003, 2603, 2604, 2629, 2628
1828, 1979, 1980, 2005, 2004, 2604, 2605, 2630, 2629
1829, 1980, 1981, 2006, 2005, 2605, 2606, 2631, 2630
1830, 1981, 1982, 2007, 2006, 2606, 2607, 2632, 2631
1831, 1982, 1983, 2008, 2007, 2607, 2608, 2633, 2632
1832, 1983, 1984, 2009, 2008, 2608, 2609, 2634, 2633
1833, 1984, 1985, 2010, 2009, 2609, 2610, 2635, 2634
1834, 1985, 1986, 2011, 2010, 2610, 2611, 2636, 2635
1835, 1986, 1987, 2012, 2011, 2611, 2612, 2637, 2636
1836, 1987, 1988, 2013, 2012, 2612, 2613, 2638, 2637
1837, 1988, 1989, 2014, 2013, 2613, 2614, 2639, 2638
1838, 1989, 1990, 2015, 2014, 2614, 2615, 2640, 2639
1839, 1990, 1991, 2016, 2015, 2615, 2616, 2641, 2640
1840, 1991, 1992, 2017, 2016, 2616, 2617, 2642, 2641
1841, 1992, 1993, 2018, 2017, 2617, 2618, 2643, 2642
1842, 1993, 1994, 2019, 2018, 2618, 2619, 2644, 2643
1843, 1994, 1995, 2020, 2019, 2619, 2620, 2645, 2644
1844, 1995, 1996, 2021, 2020, 2620, 2621, 2646, 2645
1845, 1996, 1997, 2022, 2021, 2621, 2622, 2647, 2646
1846, 1997, 1998, 2023, 2022, 2622, 2623, 2648, 2647
1847, 1998, 1999, 2024, 2023, 2623, 2624, 2649, 2648
1848, 1999, 2000, 2025, 2024, 2624, 2625, 2650, 2649
1849, 2001, 2002, 2027, 2026, 2626, 2627, 2652, 2651
1850, 2002, 2003, 2028, 2027, 2627, 2628, 2653, 2652
1851, 2003, 2004, 2029, 2028, 2628, 2629, 2654, 2653
1852, 2004, 2005, 2030, 2029, 2629, 2630, 2655, 2654
1853, 2005, 2006, 2031, 2030, 2630, 2631, 2656, 2655
1854, 2006, 2007, 2032, 2031, 2631, 2632, 2657, 2656
1855, 2007, 2008, 2033, 2032, 2632, 2633, 2658, 2657
1856, 2008, 2009, 2034, 2033, 2633, 2634, 2659, 2658
1857, 2009, 2010, 2035, 2034, 2634, 2635, 2660, 2659
1858, 2010, 2011, 2036, 2035, 2635, 2636, 2661, 2660
1859, 2011, 2012, 2037, 2036, 2636, 2637, 2662, 2661
1860, 2012, 2013, 2038, 2037, 2637, 2638, 2663, 2662
1861, 2013, 2014, 2039, 2038, 2638, 2639, 2664, 2663
1862, 2014, 2015, 2040, 2039, 2639, 2640, 2665, 2664
1863, 2015, 2016, 2041, 2040, 2640, 2641, 2666, 2665
1864, 2016, 2017, 2042, 2041, 2641, 2642, 2667, 2666
1865, 2017, 2018, 2043, 2042, 2642, 2643, 2668, 2667
1866, 2018, 2019, 2044, 2043, 2643, 2644, 2669, 2668
1867, 2019, 2020, 2045, 2044, 2644, 2645, 2670, 2669
1868, 2020, 2021, 2046, 2045, 2645, 2646, 2671, 2670
1869, 2021, 2022, 2047, 2046, 2646, 2647, 2672, 2671
1870, 2022, 2023, 2048, 2047, 2647, 2648, 2673, 2672
1871, 2023, 2024, 2049, 2048, 2648, 2649, 2674, 2673
1872, 2024, 2025, 2050, 2049, 2649, 2650, 2675, 2674
1873, 2026, 2027, 2052, 2051, 2651, 2652, 2677, 2676
1874, 2027, 2028, 2053, 2052, 2652, 2653, 2678, 2677
1875, 2028, 2029, 2054, 2053, 2653, 2654, 2679, 2678
1876, 2029, 2030, 2055, 2054, 2654, 2655, 2680, 2679
1877, 2030, 2031, 2056, 2055, 2655, 2656, 2681, 2680
1878, 2031, 2032, 2057, 2056, 2656, 2657, 2682, 2681
1879, 2032, 2033, 2058, 2057, 2657, 2658, 2683, 2682
1880, 2033, 2034, 2059, 2058, 2658, 2659, 2684, 2683
1881, 2034, 2035, 2060, 2059, 2659, 2660, 2685, 2684
1882, 2035, 2036, 2061, 2060, 2660, 2661, 2686, 2685
1883, 2036, 2037, 2062, 2061, 2661, 2662, 2687, 2686
1884, 2037, 2038, 2063, 2062, 2662, 2663, 2688, 2687
1885, 2038, 2039, 2064, 2063, 2663, 2664, 2689, 2688
1886, 2039, 2040, 2065, 2064, 2664, 2665, 2690, 2689
1887, 2040, 2041, 2066, 2065, 2665, 2666, 2691, 2690
1888, 2041, 2042, 2067, 2066, 2666, 2667, 2692, 2691
1889, 2042, 2043, 2068, 2067, 2667, 2668, 2693, 2692
1890, 2043, 2044, 2069, 2068, 2668, 2669, 2694, 2693
1891, 2044, 2045, 2070, 2069, 2669, 2670, 2695, 2694
1892, 2045, 2046, 2071, 2070, 2670, 2671, 2696, 2695
1893, 2046, 2047, 2072, 2071, 2671, 2672, 2697, 2696
1894, 2047, 2048, 2073, 2072, 2672, 2673, 2698, 2697
1895, 2048, 2049, 2074, 2073, 2673, 2674, 2699, 2698
1896, 2049, 2050, 2075, 2074, 2674, 2675, 2700, 2699
1897, 2051, 2052, 2077, 2076, 2676, 2677, 2702, 2701
1898, 2052, 2053, 2078, 2077, 2677, 2678, 2703, 2702
1899, 2053, 2054, 2079, 2078, 2678, 2679, 2704, 2703
1900, 2054, 2055, 2080, 2079, 2679, 2680, 2705, 2704
1901, 2055, 2056, 2081, 2080, 2680, 2681, 2706, 2705
1902, 2056, 2057, 2082, 2081, 2681, 2682, 2707, 2706
1903, 2057, 2058, 2083, 2082, 2682, 2683, 2708, 2707
1904, 2058, 2059, 2084, 2083, 2683, 2684, 2709, 2708
1905, 2059, 2060, 2085, 2084, 2684, 2685, 2710, 2709
1906, 2060, 2061, 2086, 2085, 2685, 2686, 2711, 2710
1907, 2061, 2062, 2087, 2086, 2686, 2687, 2712, 2711
1908, 2062, 2063, 2088, 2087, 2687, 2688, 2713, 2712
1909, 2063, 2064, 2089, 2088, 2688, 2689, 2714, 2713
1910, 2064, 2065, 2090, 2089, 2689, 2690, 2715, 2714
1911, 2065, 2066, 2091, 2090, 2690, 2691, 2716, 2715
1912, 2066, 2067, 2092, 2091, 2691, 2692, 2717, 2716
1913, 2067, 2068, 2093, 2092, 2692, 2693, 2718, 2717
1914, 2068, 2069, 2094, 2093, 2693, 2694, 2719, 2718
1915, 2069, 2070, 2095, 2094, 2694, 2695, 2720, 2719
1916, 2070, 2071, 2096, 2095, 2695, 2696, 2721, 2720
1917, 2071, 2072, 2097, 2096, 2696, 2697, 2722, 2721
1918, 2072, 2073, 2098, 2097, 2697, 2698, 2723, 2722
1919, 2073, 2074, 2099, 2098, 2698, 2699, 2724, 2723
1920, 2074, 2075, 2100, 2099, 2699, 2700, 2725, 2724
1921, 2076, 2077, 2102, 2101, 2701, 2702, 2727, 2726
1922, 2077, 2078, 2103, 2102, 2702, 2703, 2728, 2727
1923, 2078, 2079, 2104, 2103, 2703, 2704, 2729, 2728
1924, 2079, 2080, 2105, 2104, 2704, 2705, 2730, 2729
1925, 2080, 2081, 2106, 2105, 2705, 2706, 2731, 2730
1926, 2081, 2082, 2107, 2106, 2706, 2707, 2732, 2731
1927, 2082, 2083, 2108, 2107, 2707, 2708, 2733, 2732
1928, 2083, 2084, 2109, 2108, 2708, 2709, 2734, 2733
1929, 2084, 2085, 2110, 2109, 2709, 2710, 2735, 2734
1930, 2085, 2086, 2111, 2110, 2710, 2711, 2736, 2735
1931, 2086, 2087, 2112, 2111, 2711, 2712, 2737, 2736
1932, 2087, 2088, 2113, 2112, 2712, 2713, 2738, 2737
1933, 2088, 2089, 2114, 2113, 2713, 2714, 2739, 2738
1934, 2089, 2090, 2115, 2114, 2714, 2715, 2740, 2739
1935, 2090, 2091, 2116, 2115, 2715, 2716, 2741, 2740
1936, 2091, 2092, 2117, 2116, 2716, 2717, 2742, 2741
1937, 2092, 2093, 2118, 2117, 2717, 2718, 2743, 2742
1938, 2093, 2094, 2119, 2118, 2718, 2719, 2744, 2743
1939, 2094, 2095, 2120, 2119, 2719, 2720, 2745, 2744
1940, 2095, 2096, 2121, 2120, 2720, 2721, 2746, 2745
1941, 2096, 2097, 2122, 2121, 2721, 2722, 2747, 2746
1942, 2097, 2098, 2123, 2122, 2722, 2723, 2748, 2747
1943, 2098, 2099, 2124, 2123, 2723, 2724, 2749, 2748
1944, 2099, 2100, 2125, 2124, 2724, 2725, 2750, 2749
1945, 2101, 2102, 2127, 2126, 2726, 2727, 2752, 2751
1946, 2102, 2103, 2128, 2127, 2727, 2728, 2753, 2752
1947, 2103, 2104, 2129, 2128, 2728, 2729, 2754, 2753
1948, 2104, 2105, 2130, 2129, 2729, 2730, 2755, 2754
1949, 2105, 2106, 2131, 2130, 2730, 2731, 2756, 2755
1950, 2106, 2107, 2132, 2131, 2731, 2732, 2757, 2756
1951, 2107, 2108, 2133, 2132, 2732, 2733, 2758, 2757
1952, 2108, 2109, 2134, 2133, 2733, 2734, 2759, 2758
1953, 2109, 2110, 2135, 2134, 2734, 2735, 2760, 2759
1954, 2110, 2111, 2136, 2135, 2735, 2736, 2761, 2760
1955, 2111, 2112, 2137, 2136, 2736, 2737, 2762, 2761
1956, 2112, 2113, 2138, 2137, 2737, 2738, 2763, 2762
1957, 2113, 2114, 2139, 2138, 2738, 2739, 2764, 2763
1958, 2114, 2115, 2140, 2139, 2739, 2740, 2765, 2764
1959, 2115, 2116, 2141, 2140, 2740, 2741, 2766, 2765
1960, 2116, 2117, 2142, 2141, 2741, 2742, 2767, 2766
1961, 2117, 2118, 2143, 2142, 2742, 2743, 2768, 2767
1962, 2118, 2119, 2144, 2143, 2743, 2744, 2769, 2768
1963, 2119, 2120, 2145, 2144, 2744, 2745, 2770, 2769
1964, 2120, 2121, 2146, 2145, 2745, 2746, 2771, 2770
1965, 2121, 2122, 2147, 2146, 2746, 2747, 2772, 2771
1966, 2122, 2123, 2148, 2147, 2747, 2748, 2773, 2772
1967, 2123, 2124, 2149, 2148, 2748, 2749, 2774, 2773
1968, 2124, 2125, 2150, 2149, 2749, 2750, 2775, 2774
1969, 2126, 2127, 2152, 2151, 2751, 2752, 2777, 2776
1970, 2127, 2128, 2153, 2152, 2752, 2753, 2778, 2777
1971, 2128, 2129, 2154, 2153, 2753, 2754, 2779, 2778
1972, 2129, 2130, 2155, 2154, 2754, 2755, 2780, 2779
1973, 2130, 2131, 2156, 2155, 2755, 2756, 2781, 2780
1974, 2131, 2132, 2157, 2156, 2756, 2757, 2782, 2781
1975, 2132, 2133, 2158, 2157, 2757, 2758, 2783, 2782
1976, 2133, 2134, 2159, 2158, 2758, 2759, 2784, 2783
1977, 2134, 2135, 2160, 2159, 2759, 2760, 2785, 2784
1978, 2135, 2136, 2161, 2160, 2760, 2761, 2786, 2785
1979, 2136, 2137, 2162, 2161, 2761, 2762, 2787, 2786
1980, 2137, 2138, 2163, 2162, 2762, 2763, 2788, 2787
1981, 2138, 2139, 2164, 2163, 2763, 2764, 2789, 2788
1982, 2139, 2140, 2165, 2164, 2764, 2765, 2790, 2789
1983, 2140, 2141, 2166, 2165, 2765, 2766, 2791, 2790
1984, 2141, 2142, 2167, 2166, 2766, 2767, 2792, 2791
1985, 2142, 2143, 2168, 2167, 2767, 2768, 2793, 2792
1986, 2143, 2144, 2169, 2168, 2768, 2769, 2794, 2793
1987, 2144, 2145, 2170, 2169, 2769, 2770, 2795, 2794
1988, 2145, 2146, 2171, 2170, 2770, 2771, 2796, 2795
1989, 2146, 2147, 2172, 2171, 2771, 2772, 2797, 2796
1990, 2147, 2148, 2173, 2172, 2772, 2773, 2798, 2797
1991, 2148, 2149, 2174, 2173, 2773, 2774, 2799, 2798
1992, 2149, 2150, 2175, 2174, 2774, 2775, 2800, 2799
1993, 2151, 2152, 2177, 2176, 2776, 2777, 2802, 2801
1994, 2152, 2153, 2178, 2177, 2777, 2778, 2803, 2802
1995, 2153, 2154, 2179, 2178, 2778, 2779, 2804, 2803
1996, 2154, 2155, 2180, 2179, 2779, 2780, 2805, 2804
1997, 2155, 2156, 2181, 2180, 2780, 2781, 2806, 2805
1998, 2156, 2157, 2182, 2181, 2781, 2782, 2807, 2806
1999, 2157, 2158, 2183, 2182, 2782, 2783, 2808, 2807
2000, 2158, 2159, 2184, 2183, 2783, 2784, 2809, 2808
2001, 2159, 2160, 2185, 2184, 2784, 2785, 2810, 2809
2002, 2160, 2161, 2186, 2185, 2785, 2786, 2811, 2810
2003, 2161, 2162, 2187, 2186, 2786, 2787, 2812, 2811
2004, 2162, 2163, 2188, 2187, 2787, 2788, 2813, 2812
2005, 2163, 2164, 2189, 2188, 2788, 2789, 2814, 2813
2006, 2164, 2165, 2190, 2189, 2789, 2790, 2815, 2814
2007, 2165, 2166, 2191, 2190, 2790, 2791, 2816, 2815
2008, 2166, 2167, 2192, 2191, 2791, 2792, 2817, 2816
2009, 2167, 2168, 2193, 2192, 2792, 2793, 2818, 2817
2010, 2168, 2169, 2194, 2193, 2793, 2794, 2819, 2818
2011, 2169, 2170, 2195, 2194, 2794, 2795, 2820, 2819
2012, 2170, 2171, 2196, 2195, 2795, 2796, 2821, 2820
2013, 2171, 2172, 2197, 2196, 2796, 2797, 2822, 2821
2014, 2172, 2173, 2198, 2197, 2797, 2798, 2823, 2822
2015, 2173, 2174, 2199, 2198, 2798, 2799, 2824, 2823
2016, 2174, 2175, 2200, 2199, 2799, 2800, 2825, 2824
2017, 2176, 2177, 2202, 2201, 2801, 2802, 2827, 2826
2018, 2177, 2178, 2203, 2202, 2802, 2803, 2828, 2827
2019, 2178, 2179, 2204, 2203, 2803, 2804, 2829, 2828
2020, 2179, 2180, 2205, 2204, 2804, 2805, 2830, 2829
2021, 2180, 2181, 2206, 2205, 2805, 2806, 2831, 2830
2022, 2181, 2182, 2207, 2206, 2806, 2807, 2832, 2831
2023, 2182, 2183, 2208, 2207, 2807, 2808, 2833, 2832
2024, 2183, 2184, 2209, 2208, 2808, 2809, 2834, 2833
2025, 2184, 2185, 2210, 2209, 2809, 2810, 2835, 2834
2026, 2185, 2186, 2211, 2210, 2810, 2811, 2836, 2835
2027, 2186, 2187, 2212, 2211, 2811, 2812, 2837, 2836
2028, 2187, 2188, 2213, 2212, 2812, 2813, 2838, 2837
2029, 2188, 2189, 2214, 2213, 2813, 2814, 2839, 2838
2030, 2189, 2190, 2215, 2214, 2814, 2815, 2840, 2839
2031, 2190, 2191, 2216, 2215, 2815, 2816, 2841, 2840
2032, 2191, 2192, 2217, 2216, 2816, 2817, 2842, 2841
2033, 2192, 2193, 2218, 2217, 2817, 2818, 2843, 2842
2034, 2193, 2194, 2219, 2218, 2818, 2819, 2844, 2843
2035, 2194, 2195, 2220, 2219, 2819, 2820, 2845, 2844
2036, 2195, 2196, 2221, 2220, 2820, 2821, 2846, 2845
2037, 2196, 2197, 2222, 2221, 2821, 2822, 2847, 2846
2038, 2197, 2198, 2223, 2222, 2822, 2823, 2848, 2847
2039, 2198, 2199, 2224, 2223, 2823, 2824, 2849, 2848
2040, 2199, 2200, 2225, 2224, 2824, 2825, 2850, 2849
2041, 2201, 2202, 2227, 2226, 2826, 2827, 2852, 2851
2042, 2202, 2203, 2228, 2227, 2827, 2828, 2853, 2852
2043, 2203, 2204, 2229, 2228, 2828, 2829, 2854, 2853
2044, 2204, 2205, 2230, 2229, 2829, 2830, 2855, 2854
2045, 2205, 2206, 2231, 2230, 2830, 2831, 2856, 2855
2046, 2206, 2207, 2232, 2231, 2831, 2832, 2857, 2856
2047, 2207, 2208, 2233, 2232, 2832, 2833, 2858, 2857
2048, 2208, 2209, 2234, 2233, 2833, 2834, 2859, 2858
2049, 2209, 2210, 2235, 2234, 2834, 2835, 2860, 2859
2050, 2210, 2211, 2236, 2235, 2835, 2836, 2861, 2860
2051, 2211, 2212, 2237, 2236, 2836, 2837, 2862, 2861
2052, 2212, 2213, 2238, 2237, 2837, 2838, 2863, 2862
2053, 2213, 2214, 2239, 2238, 2838, 2839, 2864, 2863
2054, 2214, 2215, 2240, 2239, 2839, 2840, 2865, 2864
2055, 2215, 2216, 2241, 2240, 2840, 2841, 2866, 2865
2056, 2216, 2217, 2242, 2241, 2841, 2842, 2867, 2866
2057, 2217, 2218, 2243, 2242, 2842, 2843, 2868, 2867
2058, 2218, 2219, 2244, 2243, 2843, 2844, 2869, 2868
2059, 2219, 2220, 2245, 2244, 2844, 2845, 2870, 2869
2060, 2220, 2221, 2246, 2245, 2845, 2846, 2871, 2870
2061, 2221, 2222, 2247, 2246, 2846, 2847, 2872, 2871
2062, 2222, 2223, 2248, 2247, 2847, 2848, 2873, 2872
2063, 2223, 2224, 2249, 2248, 2848, 2849, 2874, 2873
2064, 2224, 2225, 2250, 2249, 2849, 2850, 2875, 2874
2065, 2226, 2227, 2252, 2251, 2851, 2852, 2877, 2876
2066, 2227, 2228, 2253, 2252, 2852, 2853, 2878, 2877
2067, 2228, 2229, 2254, 2253, 2853, 2854, 2879, 2878
2068, 2229, 2230, 2255, 2254, 2854, 2855, 2880, 2879
2069, 2230, 2231, 2256, 2255, 2855, 2856, 2881, 2880
2070, 2231, 2232, 2257, 2256, 2856, 2857, 2882, 2881
2071, 2232, 2233, 2258, 2257, 2857, 2858, 2883, 2882
2072, 2233, 2234, 2259, 2258, 2858, 2859, 2884, 2883
2073, 2234, 2235, 2260, 2259, 2859, 2860, 2885, 2884
2074, 2235, 2236, 2261, 2260, 2860, 2861, 2886, 2885
2075, 2236, 2237, 2262, 2261, 2861, 2862, 2887, 2886
2076, 2237, 2238, 2263, 2262, 2862, 2863, 2888, 2887
2077, 2238, 2239, 2264, 2263, 2863, 2864, 2889, 2888
2078, 2239, 2240, 2265, 2264, 2864, 2865, 2890, 2889
2079, 2240, 2241, 2266, 2265, 2865, 2866, 2891, 2890
2080, 2241, 2242, 2267, 2266, 2866, 2867, 2892, 2891
2081, 2242, 2243, 2268, 2267, 2867, 2868, 2893, 2892
2082, 2243, 2244, 2269, 2268, 2868, 2869, 2894, 2893
2083, 2244, 2245, 2270, 2269, 2869, 2870, 2895, 2894
2084, 2245, 2246, 2271, 2270, 2870, 2871, 2896, 2895
2085, 2246, 2247, 2272, 2271, 2871, 2872, 2897, 2896
2086, 2247, 2248, 2273, 2272, 2872, 2873, 2898, 2897
2087, 2248, 2249, 2274, 2273, 2873, 2874, 2899, 2898
2088, 2249, 2250, 2275, 2274, 2874, 2875, 2900, 2899
2089, 2251, 2252, 2277, 2276, 2876, 2877, 2902, 2901
2090, 2252, 2253, 2278, 2277, 2877, 2878, 2903, 2902
2091, 2253, 2254, 2279, 2278, 2878, 2879, 2904, 2903
2092, 2254, 2255, 2280, 2279, 2879, 2880, 2905, 2904
2093, 2255, 2256, 2281, 2280, 2880, 2881, 2906, 2905
2094, 2256, 2257, 2282, 2281, 2881, 2882, 2907, 2906
2095, 2257, 2258, 2283, 2282, 2882, 2883, 2908, 2907
2096, 2258, 2259, 2284, 2283, 2883, 2884, 2909, 2908
2097, 2259, 2260, 2285, 2284, 2884, 2885, 2910, 2909
2098, 2260, 2261, 2286, 2285, 2885, 2886, 2911, 2910
2099, 2261, 2262, 2287, 2286, 2886, 2887, 2912, 2911
2100, 2262, 2263, 2288, 2287, 2887, 2888, 2913, 2912
2101, 2263, 2264, 2289, 2288, 2888, 2889, 2914, 2913
2102, 2264, 2265, 2290, 2289, 2889, 2890, 2915, 2914
2103, 2265, 2266, 2291, 2290, 2890, 2891, 2916, 2915
2104, 2266, 2267, 2292, 2291, 2891, 2892, 2917, 2916
2105, 2267, 2268, 2293, 2292, 2892, 2893, 2918, 2917
2106, 2268, 2269, 2294, 2293, 2893, 2894, 2919, 2918
2107, 2269, 2270, 2295, 2294, 2894, 2895, 2920, 2919
2108, 2270, 2271, 2296, 2295, 2895, 2896, 2921, 2920
2109, 2271, 2272, 2297, 2296, 2896, 2897, 2922, 2921
2110, 2272, 2273, 2298, 2297, 2897, 2898, 2923, 2922
2111, 2273, 2274, 2299, 2298, 2898, 2899, 2924, 2923
2112, 2274, 2275, 2300, 2299, 2899, 2900, 2925, 2924
2113, 2276, 2277, 2302, 2301, 2901, 2902, 2927, 2926
2114, 2277, 2278, 2303, 2302, 2902, 2903, 2928, 2927
2115, 2278, 2279, 2304, 2303, 2903, 2904, 2929, 2928
2116, 2279, 2280, 2305, 2304, 2904, 2905, 2930, 2929
2117, 2280, 2281, 2306, 2305, 2905, 2906, 2931, 2930
2118, 2281, 2282, 2307, 2306, 2906, 2907, 2932, 2931
2119, 2282, 2283, 2308, 2307, 2907, 2908, 2933, 2932
2120, 2283, 2284, 2309, 2308, 2908, 2909, 2934, 2933
2121, 2284, 2285, 2310, 2309, 2909, 2910, 2935, 2934
2122, 2285, 2286, 2311, 2310, 2910, 2911, 2936, 2935
2123, 2286, 2287, 2312, 2311, 2911, 2912, 2937, 2936
2124, 2287, 2288, 2313, 2312, 2912, 2913, 2938, 2937
2125, 2288, 2289, 2314, 2313, 2913, 2914, 2939, 2938
2126, 2289, 2290, 2315, 2314, 2914, 2915, 2940, 2939
2127, 2290, 2291, 2316, 2315, 2915, 2916, 2941, 2940
2128, 2291, 2292, 2317, 2316, 2916, 2917, 2942, 2941
2129, 2292, 2293, 2318, 2317, 2917, 2918, 2943, 2942
2130, 2293, 2294, 2319, 2318, 2918, 2919, 2944, 2943
2131, 2294, 2295, 2320, 2319, 2919, 2920, 2945, 2944
2132, 2295, 2296, 2321, 2320, 2920, 2921, 2946, 2945
2133, 2296, 2297, 2322, 2321, 2921, 2922, 2947, 2946
2134, 2297, 2298, 2323, 2322, 2922, 2923, 2948, 2947
2135, 2298, 2299, 2324, 2323, 2923, 2924, 2949, 2948
2136, 2299, 2300, 2325, 2324, 2924, 2925, 2950, 2949
2137, 2301, 2302, 2327, 2326, 2926, 2927, 2952, 2951
2138, 2302, 2303, 2328, 2327, 2927, 2928, 2953, 2952
2139, 2303, 2304, 2329, 2328, 2928, 2929, 2954, 2953
2140, 2304, 2305, 2330, 2329, 2929, 2930, 2955, 2954
2141, 2305, 2306, 2331, 2330, 2930, 2931, 2956, 2955
2142, 2306, 2307, 2332, 2331, 2931, 2932, 2957, 2956
2143, 2307, 2308, 2333, 2332, 2932, 2933, 2958, 2957
2144, 2308, 2309, 2334, 2333, 2933, 2934, 2959, 2958
2145, 2309, 2310, 2335, 2334, 2934, 2935, 2960, 2959
2146, 2310, 2311, 2336, 2335, 2935, 2936, 2961, 2960
2147, 2311, 2312, 2337, 2336, 2936, 2937, 2962, 2961
2148, 2312, 2313, 2338, 2337, 2937, 2938, 2963, 2962
2149, 2313, 2314, 2339, 2338, 2938, 2939, 2964, 2963
2150, 2314, 2315, 2340, 2339, 2939, 2940, 2965, 2964
2151, 2315, 2316, 2341, 2340, 2940, 2941, 2966, 2965
2152, 2316, 2317, 2342, 2341, 2941, 2942, 2967, 2966
2153, 2317, 2318, 2343, 2342, 2942, 2943, 2968, 2967
2154, 2318, 2319, 2344, 2343, 2943, 2944, 2969, 2968
2155, 2319, 2320, 2345, 2344, 2944, 2945, 2970, 2969
2156, 2320, 2321, 2346, 2345, 2945, 2946, 2971, 2970
2157, 2321, 2322, 2347, 2346, 2946, 2947, 2972, 2971
2158, 2322, 2323, 2348, 2347, 2947, 2948, 2973, 2972
2159, 2323, 2324, 2349, 2348, 2948, 2949, 2974, 2973
2160, 2324, 2325, 2350, 2349, 2949, 2950, 2975, 2974
2161, 2326, 2327, 2352, 2351, 2951, 2952, 2977, 2976
2162, 2327, 2328, 2353, 2352, 2952, 2953, 2978, 2977
2163, 2328, 2329, 2354, 2353, 2953, 2954, 2979, 2978
2164, 2329, 2330, 2355, 2354, 2954, 2955, 2980, 2979
2165, 2330, 2331, 2356, 2355, 2955, 2956, 2981, 2980
2166, 2331, 2332, 2357, 2356, 2956, 2957, 2982, 2981
2167, 2332, 2333, 2358, 2357, 2957, 2958, 2983, 2982
2168, 2333, 2334, 2359, 2358, 2958, 2959, 2984, 2983
2169, 2334, 2335, 2360, 2359, 2959, 2960, 2985, 2984
2170, 2335, 2336, 2361, 2360, 2960, 2961, 2986, 2985
2171, 2336, 2337, 2362, 2361, 2961, 2962, 2987, 2986
2172, 2337, 2338, 2363, 2362, 2962, 2963, 2988, 2987
2173, 2338, 2339, 2364, 2363, 2963, 2964, 2989, 2988
2174, 2339, 2340, 2365, 2364, 2964, 2965, 2990, 2989
2175, 2340, 2341, 2366, 2365, 2965, 2966, 2991, 2990
2176, 2341, 2342, 2367, 2366, 2966, 2967, 2992, 2991
2177, 2342, 2343, 2368, 2367, 2967, 2968, 2993, 2992
2178, 2343, 2344, 2369, 2368, 2968, 2969, 2994, 2993
2179, 2344, 2345, 2370, 2369, 2969, 2970, 2995, 2994
2180, 2345, 2346, 2371, 2370, 2970, 2971, 2996, 2995
2181, 2346, 2347, 2372, 2371, 2971, 2972, 2997, 2996
2182, 2347, 2348, 2373, 2372, 2972, 2973, 2998, 2997
2183, 2348, 2349, 2374, 2373, 2973, 2974, 2999, 2998
2184, 2349, 2350, 2375, 2374, 2974, 2975, 3000, 2999
2185, 2351, 2352, 2377, 2376, 2976, 2977, 3002, 3001
2186, 2352, 2353, 2378, 2377, 2977, 2978, 3003, 3002
2187, 2353, 2354, 2379, 2378, 2978, 2979, 3004, 3003
2188, 2354, 2355, 2380, 2379, 2979, 2980, 3005, 3004
2189, 2355, 2356, 2381, 2380, 2980, 2981, 3006, 3005
2190, 2356, 2357, 2382, 2381, 2981, 2982, 3007, 3006
2191, 2357, 2358, 2383, 2382, 2982, 2983, 3008, 3007
2192, 2358, 2359, 2384, 2383, 2983, 2984, 3009, 3008
2193, 2359, 2360, 2385, 2384, 2984, 2985, 3010, 3009
2194, 2360, 2361, 2386, 2385, 2985, 2986, 3011, 3010
2195, 2361, 2362, 2387, 2386, 2986, 2987, 3012, 3011
2196, 2362, 2363, 2388, 2387, 2987, 2988, 3013, 3012
2197, 2363, 2364, 2389, 2388, 2988, 2989, 3014, 3013
2198, 2364, 2365, 2390, 2389, 2989, 2990, 3015, 3014
2199, 2365, 2366, 2391, 2390, 2990, 2991, 3016, 3015
2200, 2366, 2367, 2392, 2391, 2991, 2992, 3017, 3016
2201, 2367, 2368, 2393, 2392, 2992, 2993, 3018, 3017
2202, 2368, 2369, 2394, 2393, 2993, 2994, 3019, 3018
2203, 2369, 2370, 2395, 2394, 2994, 2995, 3020, 3019
2204, 2370, 2371, 2396, 2395, 2995, 2996, 3021, 3020
2205, 2371, 2372, 2397, 2396, 2996, 2997, 3022, 3021
2206, 2372, 2373, 2398, 2397, 2997, 2998, 3023, 3022
2207, 2373, 2374, 2399, 2398, 2998, 2999, 3024, 3023
2208, 2374, 2375, 2400, 2399, 2999, 3000, 3025, 3024
2209, 2376, 2377, 2402, 2401, 3001, 3002, 3027, 3026
2210, 2377, 2378, 2403, 2402, 3002, 3003, 3028, 3027
2211, 2378, 2379, 2404, 2403, 3003, 3004, 3029, 3028
2212, 2379, 2380, 2405, 2404, 3004, 3005, 3030, 3029
2213, 2380, 2381, 2406, 2405, 3005, 3006, 3031, 3030
2214, 2381, 2382, 2407, 2406, 3006, 3007, 3032, 3031
2215, 2382, 2383, 2408, 2407, 3007, 3008, 3033, 3032
2216, 2383, 2384, 2409, 2408, 3008, 3009, 3034, 3033
2217, 2384, 2385, 2410, 2409, 3009, 3010, 3035, 3034
2218, 2385, 2386, 2411, 2410, 3010, 3011, 3036, 3035
2219, 2386, 2387, 2412, 2411, 3011, 3012, 3037, 3036
2220, 2387, 2388, 2413, 2412, 3012, 3013, 3038, 3037
2221, 2388, 2389, 2414, 2413, 3013, 3014, 3039, 3038
2222, 2389, 2390, 2415, 2414, 3014, 3015, 3040, 3039
2223, 2390, 2391, 2416, 2415, 3015, 3016, 3041, 3040
2224, 2391, 2392, 2417, 2416, 3016, 3017, 3042, 3041
2225, 2392, 2393, 2418, 2417, 3017, 3018, 3043, 3042
2226, 2393, 2394, 2419, 2418, 3018, 3019, 3044, 3043
2227, 2394, 2395, 2420, 2419, 3019, 3020, 3045, 3044
2228, 2395, 2396, 2421, 2420, 3020, 3021, 3046, 3045
2229, 2396, 2397, 2422, 2421, 3021, 3022, 3047, 3046
2230, 2397, 2398, 2423, 2422, 3022, 3023, 3048, 3047
2231, 2398, 2399, 2424, 2423, 3023, 3024, 3049, 3048
2232, 2399, 2400, 2425, 2424, 3024, 3025, 3050, 3049
2233, 2401, 2402, 2427, 2426, 3026, 3027, 3052, 3051
2234, 2402, 2403, 2428, 2427, 3027, 3028, 3053, 3052
2235, 2403, 2404, 2429, 2428, 3028, 3029, 3054, 3053
2236, 2404, 2405, 2430, 2429, 3029, 3030, 3055, 3054
2237, 2405, 2406, 2431, 2430, 3030, 3031, 3056, 3055
2238, 2406, 2407, 2432, 2431, 3031, 3032, 3057, 3056
2239, 2407, 2408, 2433, 2432, 3032, 3033, 3058, 3057
2240, 2408, 2409, 2434, 2433, 3033, 3034, 3059, 3058
2241, 2409, 2410, 2435, 2434, 3034, 3035, 3060, 3059
2242, 2410, 2411, 2436, 2435, 3035, 3036, 3061, 3060
2243, 2411, 2412, 2437, 2436, 3036, 3037, 3062, 3061
2244, 2412, 2413, 2438, 2437, 3037, 3038, 3063, 3062
2245, 2413, 2414, 2439, 2438, 3038, 3039, 3064, 3063
2246, 2414, 2415, 2440, 2439, 3039, 3040, 3065, 3064
2247, 2415, 2416, 2441, 2440, 3040, 3041, 3066, 3065
2248, 2416, 2417, 2442, 2441, 3041, 3042, 3067, 3066
2249, 2417, 2418, 2443, 2442, 3042, 3043, 3068, 3067
2250, 2418, 2419, 2444, 2443, 3043, 3044, 3069, 3068
2251, 2419, 2420, 2445, 2444, 3044, 3045, 3070, 3069
2252, 2420, 2421, 2446, 2445, 3045, 3046, 3071, 3070
2253, 2421, 2422, 2447, 2446, 3046, 3047, 3072, 3071
2254, 2422, 2423, 2448, 2447, 3047, 3048, 3073, 3072
2255, 2423, 2424, 2449, 2448, 3048, 3049, 3074, 3073
2256, 2424, 2425, 2450, 2449, 3049, 3050, 3075, 3074
2257, 2426, 2427, 2452, 2451, 3051, 3052, 3077, 3076
2258, 2427, 2428, 2453, 2452, 3052, 3053, 3078, 3077
2259, 2428, 2429, 2454, 2453, 3053, 3054, 3079, 3078
2260, 2429, 2430, 2455, 2454, 3054, 3055, 3080, 3079
2261, 2430, 2431, 2456, 2455, 3055, 3056, 3081, 3080
2262, 2431, 2432, 2457, 2456, 3056, 3057, 3082, 3081
2263, 2432, 2433, 2458, 2457, 3057, 3058, 3083, 3082
2264, 2433, 2434, 2459, 2458, 3058, 3059, 3084, 3083
2265, 2434, 2435, 2460, 2459, 3059, 3060, 3085, 3084
2266, 2435, 2436, 2461, 2460, 3060, 3061, 3086, 3085
2267, 2436, 2437, 2462, 2461, 3061, 3062, 3087, 3086
2268, 2437, 2438, 2463, 2462, 3062, 3063, 3088, 3087
2269, 2438, 2439, 2464, 2463, 3063, 3064, 3089, 3088
2270, 2439, 2440, 2465, 2464, 3064, 3065, 3090, 3089
2271, 2440, 2441, 2466, 2465, 3065, 3066, 3091, 3090
2272, 2441, 2442, 2467, 2466, 3066, 3067, 3092, 3091
2273, 2442, 2443, 2468, 2467, 3067, 3068, 3093, 3092
2274, 2443, 2444, 2469, 2468, 3068, 3069, 3094, 3093
2275, 2444, 2445, 2470, 2469, 3069, 3070, 3095, 3094
2276, 2445, 2446, 2471, 2470, 3070, 3071, 3096, 3095
2277, 2446, 2447, 2472, 2471, 3071, 3072, 3097, 3096
2278, 2447, 2448, 2473, 2472, 3072, 3073, 3098, 3097
2279, 2448, 2449, 2474, 2473, 3073, 3074, 3099, 3098
2280, 2449, 2450, 2475, 2474, 3074, 3075, 3100, 3099
2281, 2451, 2452, 2477, 2476, 3076, 3077, 3102, 3101
2282, 2452, 2453, 2478, 2477, 3077, 3078, 3103, 3102
2283, 2453, 2454, 2479, 2478, 3078, 3079, 3104, 3103
2284, 2454, 2455, 2480, 2479, 3079, 3080, 3105, 3104
2285, 2455, 2456, 2481, 2480, 3080, 3081, 3106, 3105
2286, 2456, 2457, 2482, 2481, 3081, 3082, 3107, 3106
2287, 2457, 2458, 2483, 2482, 3082, 3083, 3108, 3107
2288, 2458, 2459, 2484, 2483, 3083, 3084, 3109, 3108
2289, 2459, 2460, 2485, 2484, 3084, 3085, 3110, 3109
2290, 2460, 2461, 2486, 2485, 3085, 3086, 3111, 3110
2291, 2461, 2462, 2487, 2486, 3086, 3087, 3112, 3111
2292, 2462, 2463, 2488, 2487, 3087, 3088, 3113, 3112
2293, 2463, 2464, 2489, 2488, 3088, 3089, 3114, 3113
2294, 2464, 2465, 2490, 2489, 3089, 3090, 3115, 3114
2295, 2465, 2466, 2491, 2490, 3090, 3091, 3116, 3115
2296, 2466, 2467, 2492, 2491, 3091, 3092, 3117, 3116
2297, 2467, 2468, 2493, 2492, 3092, 3093, 3118, 3117
2298, 2468, 2469, 2494, 2493, 3093, 3094, 3119, 3118
2299, 2469, 2470, 2495, 2494, 3094, 3095, 3120, 3119
2300, 2470, 2471, 2496, 2495, 3095, 3096, 3121, 3120
2301, 2471, 2472, 2497, 2496, 3096, 3097, 3122, 3121
2302, 2472, 2473, 2498, 2497, 3097, 3098, 3123, 3122
2303, 2473, 2474, 2499, 2498, 3098, 3099, 3124, 3123
2304, 2474, 2475, 2500, 2499, 3099, 3100, 3125, 3124
2305, 2501, 2502, 2527, 2526, 3126, 3127, 3152, 3151
2306, 2502, 2503, 2528, 2527, 3127, 3128, 3153, 3152
2307, 2503, 2504, 2529, 2528, 3128, 3129, 3154, 3153
2308, 2504, 2505, 2530, 2529, 3129, 3130, 3155, 3154
2309, 2505, 2506, 2531, 2530, 3130, 3131, 3156, 3155
2310, 2506, 2507, 2532, 2531, 3131, 3132, 3157, 3156
2311, 2507, 2508, 2533, 2532, 3132, 3133, 3158, 3157
2312, 2508, 2509, 2534, 2533, 3133, 3134, 3159, 3158
2313, 2509, 2510, 2535, 2534, 3134, 3135, 3160, 3159
2314, 2510, 2511, 2536, 2535, 3135, 3136, 3161, 3160
2315, 2511, 2512, 2537, 2536, 3136, 3137, 3162, 3161
2316, 2512, 2513, 2538, 2537, 3137, 3138, 3163, 3162
2317, 2513, 2514, 2539, 2538, 3138, 3139, 3164, 3163
2318, 2514, 2515, 2540, 2539, 3139, 3140, 3165, 3164
2319, 2515, 2516, 2541, 2540, 3140, 3141, 3166, 3165
2320, 2516, 2517, 2542, 2541, 3141, 3142, 3167, 3166
2321, 2517, 2518, 2543, 2542, 3142, 3143, 3168, 3167
2322, 2518, 2519, 2544, 2543, 3143, 3144, 3169, 3168
2323, 2519, 2520, 2545, 2544, 3144, 3145, 3170, 3169
2324, 2520, 2521, 2546, 2545, 3145, 3146, 3171, 3170
2325, 2521, 2522, 2547, 2546, 3146, 3147, 3172, 3171
2326, 2522, 2523, 2548, 2547, 3147, 3148, 3173, 3172
2327, 2523, 2524, 2549, 2548, 3148, 3149, 3174, 3173
2328, 2524, 2525, 2550, 2549, 3149, 3150, 3175, 3174
2329, 2526, 2527, 2552, 2551, 3151, 3152, 3177, 3176
2330, 2527, 2528, 2553, 2552, 3152, 3153, 3178, 3177
2331, 2528, 2529, 2554, 2553, 3153, 3154, 3179, 3178
2332, 2529, 2530, 2555, 2554, 3154, 3155, 3180, 3179
2333, 2530, 2531, 2556, 2555, 3155, 3156, 3181, 3180
2334, 2531, 2532, 2557, 2556, 3156, 3157, 3182, 3181
2335, 2532, 2533, 2558, 2557, 3157, 3158, 3183, 3182
2336, 2533, 2534, 2559, 2558, 3158, 3159, 3184, 3183
2337, 2534, 2535, 2560, 2559, 3159, 3160, 3185, 3184
2338, 2535, 2536, 2561, 2560, 3160, 3161, 3186, 3185
2339, 2536, 2537, 2562, 2561, 3161, 3162, 3187, 3186
2340, 2537, 2538, 2563, 2562, 3162, 3163, 3188, 3187
2341, 2538, 2539, 2564, 2563, 3163, 3164, 3189, 3188
2342, 2539, 2540, 2565, 2564, 3164, 3165, 3190, 3189
2343, 2540, 2541, 2566, 2565, 3165, 3166, 3191, 3190
2344, 2541, 2542, 2567, 2566, 3166, 3167, 3192, 3191
2345, 2542, 2543, 2568, 2567, 3167, 3168, 3193, 3192
2346, 2543, 2544, 2569, 2568, 3168, 3169, 3194, 3193
2347, 2544, 2545, 2570, 2569, 3169, 3170, 3195, 3194
2348, 2545, 2546, 2571, 2570, 3170, 3171, 3196, 3195
2349, 2546, 2547, 2572, 2571, 3171, 3172, 3197, 3196
2350, 2547, 2548, 2573, 2572, 3172, 3173, 3198, 3197
2351, 2548, 2549, 2574, 2573, 3173, 3174, 3199, 3198
2352, 2549, 2550, 2575, 2574, 3174, 3175, 3200, 3199
2353, 2551, 2552, 2577, 2576, 3176, 3177, 3202, 3201
2354, 2552, 2553, 2578, 2577, 3177, 3178, 3203, 3202
2355, 2553, 2554, 2579, 2578, 3178, 3179, 3204, 3203
2356, 2554, 2555, 2580, 2579, 3179, 3180, 3205, 3204
2357, 2555, 2556, 2581, 2580, 3180, 3181, 3206, 3205
2358, 2556, 2557, 2582, 2581, 3181, 3182, 3207, 3206
2359, 2557, 2558, 2583, 2582, 3182, 3183, 3208, 3207
2360, 2558, 2559, 2584, 2583, 3183, 3184, 3209, 3208
2361, 2559, 2560, 2585, 2584, 3184, 3185, 3210, 3209
2362, 2560, 2561, 2586, 2585, 3185, 3186, 3211, 3210
2363, 2561, 2562, 2587, 2586, 3186, 3187, 3212, 3211
2364, 2562, 2563, 2588, 2587, 3187, 3188, 3213, 3212
2365, 2563, 2564, 2589, 2588, 3188, 3189, 3214, 3213
2366, 2564, 2565, 2590, 2589, 3189, 3190, 3215, 3214
2367, 2565, 2566, 2591, 2590, 3190, 3191, 3216, 3215
2368, 2566, 2567, 2592, 2591, 3191, 3192, 3217, 3216
2369, 2567, 2568, 2593, 2592, 3192, 3193, 3218, 3217
2370, 2568, 2569, 2594, 2593, 3193, 3194, 3219, 3218
2371, 2569, 2570, 2595, 2594, 3194, 3195, 3220, 3219
2372, 2570, 2571, 2596, 2595, 3195, 3196, 3221, 3220
2373, 2571, 2572, 2597, 2596, 3196, 3197, 3222, 3221
2374, 2572, 2573, 2598, 2597, 3197, 3198, 3223, 3222
2375, 2573, 2574, 2599, 2598, 3198, 3199, 3224, 3223
2376, 2574, 2575, 2600, 2599, 3199, 3200, 3225, 3224
2377, 2576, 2577, 2602, 2601, 3201, 3202, 3227, 3226
2378, 2577, 2578, 2603, 2602, 3202, 3203, 3228, 3227
2379, 2578, 2579, 2604, 2603, 3203, 3204, 3229, 3228
2380, 2579, 2580, 2605, 2604, 3204, 3205, 3230, 3229
2381, 2580, 2581, 2606, 2605, 3205, 3206, 3231, 3230
2382, 2581, 2582, 2607, 2606, 3206, 3207, 3232, 3231
2383, 2582, 2583, 2608, 2607, 3207, 3208, 3233, 3232
2384, 2583, 2584, 2609, 2608, 3208, 3209, 3234, 3233
2385, 2584, 2585, 2610, 2609, 3209, 3210, 3235, 3234
2386, 2585, 2586, 2611, 2610, 3210, 3211, 3236, 3235
2387, 2586, 2587, 2612, 2611, 3211, 3212, 3237, 3236
2388, 2587, 2588, 2613, 2612, 3212, 3213, 3238, 3237
2389, 2588, 2589, 2614, 2613, 3213, 3214, 3239, 3238
2390, 2589, 2590, 2615, 2614, 3214, 3215, 3240, 3239
2391, 2590, 2591, 2616, 2615, 3215, 3216, 3241, 3240
2392, 2591, 2592, 2617, 2616, 3216, 3217, 3242, 3241
2393, 2592, 2593, 2618, 2617, 3217, 3218, 3243, 3242
2394, 2593, 2594, 2619, 2618, 3218, 3219, 3244, 3243
2395, 2594, 2595, 2620, 2619, 3219, 3220, 3245, 3244
2396, 2595, 2596, 2621, 2620, 3220, 3221, 3246, 3245
2397, 2596, 2597, 2622, 2621, 3221, 3222, 3247, 3246
2398, 2597, 2598, 2623, 2622, 3222, 3223, 3248, 3247
2399, 2598, 2599, 2624, 2623, 3223, 3224, 3249, 3248
2400, 2599, 2600, 2625, 2624, 3224, 3225, 3250, 3249
2401, 2601, 2602, 2627, 2626, 3226, 3227, 3252, 3251
2402, 2602, 2603, 2628, 2627, 3227, 3228, 3253, 3252
2403, 2603, 2604, 2629, 2628, 3228, 3229, 3254, 3253
2404, 2604, 2605, 2630, 2629, 3229, 3230, 3255, 3254
2405, 2605, 2606, 2631, 2630, 3230, 3231, 3256, 3255
2406, 2606, 2607, 2632, 2631, 3231, 3232, 3257, 3256
2407, 2607, 2608, 2633, 2632, 3232, 3233, 3258, 3257
2408, 2608, 2609, 2634, 2633, 3233, 3234, 3259, 3258
2409, 2609, 2610, 2635, 2634, 3234, 3235, 3260, 3259
2410, 2610, 2611, 2636, 2635, 3235, 3236, 3261, 3260
2411, 2611, 2612, 2637, 2636, 3236, 3237, 3262, 3261
2412, 2612, 2613, 2638, 2637, 3237, 3238, 3263, 3262
2413, 2613, 2614, 2639, 2638, 3238, 3239, 3264, 3263
2414, 2614, 2615, 2640, 2639, 3239, 3240, 3265, 3264
2415, 2615, 2616, 2641, 2640, 3240, 3241, 3266, 3265
2416, 2616, 2617, 2642, 2641, 3241, 3242, 3267, 3266
2417, 2617, 2618, 2643, 2642, 3242, 3243, 3268, 3267
2418, 2618, 2619, 2644, 2643, 3243, 3244, 3269, 3268
2419, 2619, 2620, 2645, 2644, 3244, 3245, 3270, 3269
2420, 2620, 2621, 2646, 2645, 3245, 3246, 3271, 3270
2421, 2621, 2622, 2647, 2646, 3246, 3247, 3272, 3271
2422, 2622, 2623, 2648, 2647, 3247, 3248, 3273, 3272
2423, 2623, 2624, 2649, 2648, 3248, 3249, 3274, 3273
2424, 2624, 2625, 2650, 2649, 3249, 3250, 3275, 3274
2425, 2626, 2627, 2652, 2651, 3251, 3252, 3277, 3276
2426, 2627, 2628, 2653, 2652, 3252, 3253, 3278, 3277
2427, 2628, 2629, 2654, 2653, 3253, 3254, 3279, 3278
2428, 2629, 2630, 2655, 2654, 3254, 3255, 3280, 3279
2429, 2630, 2631, 2656, 2655, 3255, 3256, 3281, 3280
2430, 2631, 2632, 2657, 2656, 3256, 3257, 3282, 3281
2431, 2632, 2633, 2658, 2657, 3257, 3258, 3283, 3282
2432, 2633, 2634, 2659, 2658, 3258, 3259, 3284, 3283
2433, 2634, 2635, 2660, 2659, 3259, 3260, 3285, 3284
2434, 2635, 2636, 2661, 2660, 3260, 3261, 3286, 3285
2435, 2636, 2637, 2662, 2661, 3261, 3262, 3287, 3286
2436, 2637, 2638, 2663, 2662, 3262, 3263, 3288, 3287
2437, 2638, 2639, 2664, 2663, 3263, 3264, 3289, 3288
2438, 2639, 2640, 2665, 2664, 3264, 3265, 3290, 3289
2439, 2640, 2641, 2666, 2665, 3265, 3266, 3291, 3290
2440, 2641, 2642, 2667, 2666, 3266, 3267, 3292, 3291
2441, 2642, 2643, 2668, 2667, 3267, 3268, 3293, 3292
2442, 2643, 2644, 2669, 2668, 3268, 3269, 3294, 3293
2443, 2644, 2645, 2670, 2669, 3269, 3270, 3295, 3294
2444, 2645, 2646, 2671, 2670, 3270, 3271, 3296, 3295
2445, 2646, 2647, 2672, 2671, 3271, 3272, 3297, 3296
2446, 2647, 2648, 2673, 2672, 3272, 3273, 3298, 3297
2447, 2648, 2649, 2674, 2673, 3273, 3274, 3299, 3298
2448, 2649, 2650, 2675, 2674, 3274, 3275, 3300, 3299
2449, 2651, 2652, 2677, 2676, 3276, 3277, 3302, 3301
2450, 2652, 2653, 2678, 2677, 3277, 3278, 3303, 3302
2451, 2653, 2654, 2679, 2678, 3278, 3279, 3304, 3303
2452, 2654, 2655, 2680, 2679, 3279, 3280, 3305, 3304
2453, 2655, 2656, 2681, 2680, 3280, 3281, 3306, 3305
2454, 2656, 2657, 2682, 2681, 3281, 3282, 3307, 3306
2455, 2657, 2658, 2683, 2682, 3282, 3283, 3308, 3307
2456, 2658, 2659, 2684, 2683, 3283, 3284, 3309, 3308
2457, 2659, 2660, 2685, 2684, 3284, 3285, 3310, 3309
2458, 2660, 2661, 2686, 2685, 3285, 3286, 3311, 3310
2459, 2661, 2662, 2687, 2686, 3286, 3287, 3312, 3311
2460, 2662, 2663, 2688, 2687, 3287, 3288, 3313, 3312
2461, 2663, 2664, 2689, 2688, 3288, 3289, 3314, 3313
2462, 2664, 2665, 2690, 2689, 3289, 3290, 3315, 3314
2463, 2665, 2666, 2691, 2690, 3290, 3291, 3316, 3315
2464, 2666, 2667, 2692, 2691, 3291, 3292, 3317, 3316
2465, 2667, 2668, 2693, 2692, 3292, 3293, 3318, 3317
2466, 2668, 2669, 2694, 2693, 3293, 3294, 3319, 3318
2467, 2669, 2670, 2695, 2694, 3294, 3295, 3320, 3319
2468, 2670, 2671, 2696, 2695, 3295, 3296, 3321, 3320
2469, 2671, 2672, 2697, 2696, 3296, 3297, 3322, 3321
2470, 2672, 2673, 2698, 2697, 3297, 3298, 3323, 3322
2471, 2673, 2674, 2699, 2698, 3298, 3299, 3324, 3323
2472, 2674, 2675, 2700, 2699, 3299, 3300, 3325, 3324
2473, 2676, 2677, 2702, 2701, 3301, 3302, 3327, 3326
2474, 2677, 2678, 2703, 2702, 3302, 3303, 3328, 3327
2475, 2678, 2679, 2704, 2703, 3303, 3304, 3329, 3328
2476, 2679, 2680, 2705, 2704, 3304, 3305, 3330, 3329
2477, 2680, 2681, 2706, 2705, 3305, 3306, 3331, 3330
2478, 2681, 2682, 2707, 2706, 3306, 3307, 3332, 3331
2479, 2682, 2683, 2708, 2707, 3307, 3308, 3333, 3332
2480, 2683, 2684, 2709, 2708, 3308, 3309, 3334, 3333
2481, 2684, 2685, 2710, 2709, 3309, 3310, 3335, 3334
2482, 2685, 2686, 2711, 2710, 3310, 3311, 3336, 3335
2483, 2686, 2687, 2712, 2711, 3311, 3312, 3337, 3336
2484, 2687, 2688, 2713, 2712, 3312, 3313, 3338, 3337
2485, 2688, 2689, 2714, 2713, 3313, 3314, 3339, 3338
2486, 2689, 2690, 2715, 2714, 3314, 3315, 3340, 3339
2487, 2690, 2691, 2716, 2715, 3315, 3316, 3341, 3340
2488, 2691, 2692, 2717, 2716, 3316, 3317, 3342, 3341
2489, 2692, 2693, 2718, 2717, 3317, 3318, 3343, 3342
2490, 2693, 2694, 2719, 2718, 3318, 3319, 3344, 3343
2491, 2694, 2695, 2720, 2719, 3319, 3320, 3345, 3344
2492, 2695, 2696, 2721, 2720, 3320, 3321, 3346, 3345
2493, 2696, 2697, 2722, 2721, 3321, 3322, 3347, 3346
2494, 2697, 2698, 2723, 2722, 3322, 3323, 3348, 3347
2495, 2698, 2699, 2724, 2723, 3323, 3324, 3349, 3348
2496, 2699, 2700, 2725, 2724, 3324, 3325, 3350, 3349
2497, 2701, 2702, 2727, 2726, 3326, 3327, 3352, 3351
2498, 2702, 2703, 2728, 2727, 3327, 3328, 3353, 3352
2499, 2703, 2704, 2729, 2728, 3328, 3329, 3354, 3353
2500, 2704, 2705, 2730, 2729, 3329, 3330, 3355, 3354
2501, 2705, 2706, 2731, 2730, 3330, 3331, 3356, 3355
2502, 2706, 2707, 2732, 2731, 3331, 3332, 3357, 3356
2503, 2707, 2708, 2733, 2732, 3332, 3333, 3358, 3357
2504, 2708, 2709, 2734, 2733, 3333, 3334, 3359, 3358
2505, 2709, 2710, 2735, 2734, 3334, 3335, 3360, 3359
2506, 2710, 2711, 2736, 2735, 3335, 3336, 3361, 3360
2507, 2711, 2712, 2737, 2736, 3336, 3337, 3362, 3361
2508, 2712, 2713, 2738, 2737, 3337, 3338, 3363, 3362
2509, 2713, 2714, 2739, 2738, 3338, 3339, 3364, 3363
2510, 2714, 2715, 2740, 2739, 3339, 3340, 3365, 3364
2511, 2715, 2716, 2741, 2740, 3340, 3341, 3366, 3365
2512, 2716, 2717, 2742, 2741, 3341, 3342, 3367, 3366
2513, 2717, 2718, 2743, 2742, 3342, 3343, 3368, 3367
2514, 2718, 2719, 2744, 2743, 3343, 3344, 3369, 3368
2515, 2719, 2720, 2745, 2744, 3344, 3345, 3370, 3369
2516, 2720, 2721, 2746, 2745, 3345, 3346, 3371, 3370
2517, 2721, 2722, 2747, 2746, 3346, 3347, 3372, 3371
2518, 2722, 2723, 2748, 2747, 3347, 3348, 3373, 3372
2519, 2723, 2724, 2749, 2748, 3348, 3349, 3374, 3373
2520, 2724, 2725, 2750, 2749, 3349, 3350, 3375, 3374
2521, 2726, 2727, 2752, 2751, 3351, 3352, 3377, 3376
2522, 2727, 2728, 2753, 2752, 3352, 3353, 3378, 3377
2523, 2728, 2729, 2754, 2753, 3353, 3354, 3379, 3378
2524, 2729, 2730, 2755, 2754, 3354, 3355, 3380, 3379
2525, 2730, 2731, 2756, 2755, 3355, 3356, 3381, 3380
2526, 2731, 2732, 2757, 2756, 3356, 3357, 3382, 3381
2527, 2732, 2733, 2758, 2757, 3357, 3358, 3383, 3382
2528, 2733, 2734, 2759, 2758, 3358, 3359, 3384, 3383
2529, 2734, 2735, 2760, 2759, 3359, 3360, 3385, 3384
2530, 2735, 2736, 2761, 2760, 3360, 3361, 3386, 3385
2531, 2736, 2737, 2762, 2761, 3361, 3362, 3387, 3386
2532, 2737, 2738, 2763, 2762, 3362, 3363, 3388, 3387
2533, 2738, 2739, 2764, 2763, 3363, 3364, 3389, 3388
2534, 2739, 2740, 2765, 2764, 3364, 3365, 3390, 3389
2535, 2740, 2741, 2766, 2765, 3365, 3366, 3391, 3390
2536, 2741, 2742, 2767, 2766, 3366, 3367, 3392, 3391
2537, 2742, 2743, 2768, 2767, 3367, 3368, 3393, 3392
2538, 2743, 2744, 2769, 2768, 3368, 3369, 3394, 3393
2539, 2744, 2745, 2770, 2769, 3369, 3370, 3395, 3394
2540, 2745, 2746, 2771, 2770, 3370, 3371, 3396, 3395
2541, 2746, 2747, 2772, 2771, 3371, 3372, 3397, 3396
2542, 2747, 2748, 2773, 2772, 3372, 3373, 3398, 3397
2543, 2748, 2749, 2774, 2773, 3373, 3374, 3399, 3398
2544, 2749, 2750, 2775, 2774, 3374, 3375, 3400, 3399
2545, 2751, 2752, 2777, 2776, 3376, 3377, 3402, 3401
2546, 2752, 2753, 2778, 2777, 3377, 3378, 3403, 3402
2547, 2753, 2754, 2779, 2778, 3378, 3379, 3404, 3403
2548, 2754, 2755, 2780, 2779, 3379, 3380, 3405, 3404
2549, 2755, 2756, 2781, 2780, 3380, 3381, 3406, 3405
2550, 2756, 2757, 2782, 2781, 3381, 3382, 3407, 3406
2551, 2757, 2758, 2783, 2782, 3382, 3383, 3408, 3407
2552, 2758, 2759, 2784, 2783, 3383, 3384, 3409, 3408
2553, 2759, 2760, 2785, 2784, 3384, 3385, 3410, 3409
2554, 2760, 2761, 2786, 2785, 3385, 3386, 3411, 3410
2555, 2761, 2762, 2787, 2786, 3386, 3387, 3412, 3411
2556, 2762, 2763, 2788, 2787, 3387, 3388, 3413, 3412
2557, 2763, 2764, 2789, 2788, 3388, 3389, 3414, 3413
2558, 2764, 2765, 2790, 2789, 3389, 3390, 3415, 3414
2559, 2765, 2766, 2791, 2790, 3390, 3391, 3416, 3415
2560, 2766, 2767, 2792, 2791, 3391, 3392, 3417, 3416
2561, 2767, 2768, 2793, 2792, 3392, 3393, 3418, 3417
2562, 2768, 2769, 2794, 2793, 3393, 3394, 3419, 3418
2563, 2769, 2770, 2795, 2794, 3394, 3395, 3420, 3419
2564, 2770, 2771, 2796, 2795, 3395, 3396, 3421, 3420
2565, 2771, 2772, 2797, 2796, 3396, 3397, 3422, 3421
2566, 2772, 2773, 2798, 2797, 3397, 3398, 3423, 3422
2567, 2773, 2774, 2799, 2798, 3398, 3399, 3424, 3423
2568, 2774, 2775, 2800, 2799, 3399, 3400, 3425, 3424
2569, 2776, 2777, 2802, 2801, 3401, 3402, 3427, 3426
2570, 2777, 2778, 2803, 2802, 3402, 3403, 3428, 3427
2571, 2778, 2779, 2804, 2803, 3403, 3404, 3429, 3428
2572, 2779, 2780, 2805, 2804, 3404, 3405, 3430, 3429
2573, 2780, 2781, 2806, 2805, 3405, 3406, 3431, 3430
2574, 2781, 2782, 2807, 2806, 3406, 3407, 3432, 3431
2575, 2782, 2783, 2808, 2807, 3407, 3408, 3433, 3432
2576, 2783, 2784, 2809, 2808, 3408, 3409, 3434, 3433
2577, 2784, 2785, 2810, 2809, 3409, 3410, 3435, 3434
2578, 2785, 2786, 2811, 2810, 3410, 3411, 3436, 3435
2579, 2786, 2787, 2812, 2811, 3411, 3412, 3437, 3436
2580, 2787, 2788, 2813, 2812, 3412, 3413, 3438, 3437
2581, 2788, 2789, 2814, 2813, 3413, 3414, 3439, 3438
2582, 2789, 2790, 2815, 2814, 3414, 3415, 3440, 3439
2583, 2790, 2791, 2816, 2815, 3415, 3416, 3441, 3440
2584, 2791, 2792, 2817, 2816, 3416, 3417, 3442, 3441
2585, 2792, 2793, 2818, 2817, 3417, 3418, 3443, 3442
2586, 2793, 2794, 2819, 2818, 3418, 3419, 3444, 3443
2587, 2794, 2795, 2820, 2819, 3419, 3420, 3445, 3444
2588, 2795, 2796, 2821, 2820, 3420, 3421, 3446, 3445
2589, 2796, 2797, 2822, 2821, 3421, 3422, 3447, 3446
2590, 2797, 2798, 2823, 2822, 3422, 3423, 3448, 3447
2591, 2798, 2799, 2824, 2823, 3423, 3424, 3449, 3448
2592, 2799, 2800, 2825, 2824, 3424, 3425, 3450, 3449
2593, 2801, 2802, 2827, 2826, 3426, 3427, 3452, 3451
2594, 2802, 2803, 2828, 2827, 3427, 3428, 3453, 3452
2595, 2803, 2804, 2829, 2828, 3428, 3429, 3454, 3453
2596, 2804, 2805, 2830, 2829, 3429, 3430, 3455, 3454
2597, 2805, 2806, 2831, 2830, 3430, 3431, 3456, 3455
2598, 2806, 2807, 2832, 2831, 3431, 3432, 3457, 3456
2599, 2807, 2808, 2833, 2832, 3432, 3433, 3458, 3457
2600, 2808, 2809, 2834, 2833, 3433, 3434, 3459, 3458
2601, 2809, 2810, 2835, 2834, 3434, 3435, 3460, 3459
2602, 2810, 2811, 2836, 2835, 3435, 3436, 3461, 3460
2603, 2811, 2812, 2837, 2836, 3436, 3437, 3462, 3461
2604, 2812, 2813, 2838, 2837, 3437, 3438, 3463, 3462
2605, 2813, 2814, 2839, 2838, 3438, 3439, 3464, 3463
2606, 2814, 2815, 2840, 2839, 3439, 3440, 3465, 3464
2607, 2815, 2816, 2841, 2840, 3440, 3441, 3466, 3465
2608, 2816, 2817, 2842, 2841, 3441, 3442, 3467, 3466
2609, 2817, 2818, 2843, 2842, 3442, 3443, 3468, 3467
2610, 2818, 2819, 2844, 2843, 3443, 3444, 3469, 3468
2611, 2819, 2820, 2845, 2844, 3444, 3445, 3470, 3469
2612, 2820, 2821, 2846, 2845, 3445, 3446, 3471, 3470
2613, 2821, 2822, 2847, 2846, 3446, 3447, 3472, 3471
2614, 2822, 2823, 2848, 2847, 3447, 3448, 3473, 3472
2615, 2823, 2824, 2849, 2848, 3448, 3449, 3474, 3473
2616, 2824, 2825, 2850, 2849, 3449, 3450, 3475, 3474
2617, 2826, 2827, 2852, 2851, 3451, 3452, 3477, 3476
2618, 2827, 2828, 2853, 2852, 3452, 3453, 3478, 3477
2619, 2828, 2829, 2854, 2853, 3453, 3454, 3479, 3478
2620, 2829, 2830, 2855, 2854, 3454, 3455, 3480, 3479
2621, 2830, 2831, 2856, 2855, 3455, 3456, 3481, 3480
2622, 2831, 2832, 2857, 2856, 3456, 3457, 3482, 3481
2623, 2832, 2833, 2858, 2857, 3457, 3458, 3483, 3482
2624, 2833, 2834, 2859, 2858, 3458, 3459, 3484, 3483
2625, 2834, 2835, 2860, 2859, 3459, 3460, 3485, 3484
2626, 2835, 2836, 2861, 2860, 3460, 3461, 3486, 3485
2627, 2836, 2837, 2862, 2861, 3461, 3462, 3487, 3486
2628, 2837, 2838, 2863, 2862, 3462, 3463, 3488, 3487
2629, 2838, 2839, 2864, 2863, 3463, 3464, 3489, 3488
2630, 2839, 2840, 2865, 2864, 3464, 3465, 3490, 3489
2631, 2840, 2841, 2866, 2865, 3465, 3466, 3491, 3490
2632, 2841, 2842, 2867, 2866, 3466, 3467, 3492, 3491
2633, 2842, 2843, 2868, 2867, 3467, 3468, 3493, 3492
2634, 2843, 2844, 2869, 2868, 3468, 3469, 3494, 3493
2635, 2844, 2845, 2870, 2869, 3469, 3470, 3495, 3494
2636, 2845, 2846, 2871, 2870, 3470, 3471, 3496, 3495
2637, 2846, 2847, 2872, 2871, 3471, 3472, 3497, 3496
2638, 2847, 2848, 2873, 2872, 3472, 3473, 3498, 3497
2639, 2848, 2849, 2874, 2873, 3473, 3474, 3499, 3498
2640, 2849, 2850, 2875, 2874, 3474, 3475, 3500, 3499
2641, 2851, 2852, 2877, 2876, 3476, 3477, 3502, 3501
2642, 2852, 2853, 2878, 2877, 3477, 3478, 3503, 3502
2643, 2853, 2854, 2879, 2878, 3478, 3479, 3504, 3503
2644, 2854, 2855, 2880, 2879, 3479, 3480, 3505, 3504
2645, 2855, 2856, 2881, 2880, 3480, 3481, 3506, 3505
2646, 2856, 2857, 2882, 2881, 3481, 3482, 3507, 3506
2647, 2857, 2858, 2883, 2882, 3482, 3483, 3508, 3507
2648, 2858, 2859, 2884, 2883, 3483, 3484, 3509, 3508
2649, 2859, 2860, 2885, 2884, 3484, 3485, 3510, 3509
2650, 2860, 2861, 2886, 2885, 3485, 3486, 3511, 3510
2651, 2861, 2862, 2887, 2886, 3486, 3487, 3512, 3511
2652, 2862, 2863, 2888, 2887, 3487, 3488, 3513, 3512
2653, 2863, 2864, 2889, 2888, 3488, 3489, 3514, 3513
2654, 2864, 2865, 2890, 2889, 3489, 3490, 3515, 3514
2655, 2865, 2866, 2891, 2890, 3490, 3491, 3516, 3515
2656, 2866, 2867, 2892, 2891, 3491, 3492, 3517, 3516
2657, 2867, 2868, 2893, 2892, 3492, 3493, 3518, 3517
2658, 2868, 2869, 2894, 2893, 3493, 3494, 3519, 3518
2659, 2869, 2870, 2895, 2894, 3494, 3495, 3520, 3519
2660, 2870, 2871, 2896, 2895, 3495, 3496, 3521, 3520
2661, 2871, 2872, 2897, 2896, 3496, 3497, 3522, 3521
2662, 2872, 2873, 2898, 2897, 3497, 3498, 3523, 3522
2663, 2873, 2874, 2899, 2898, 3498, 3499, 3524, 3523
2664, 2874, 2875, 2900, 2899, 3499, 3500, 3525, 3524
2665, 2876, 2877, 2902, 2901, 3501, 3502, 3527, 3526
2666, 2877, 2878, 2903, 2902, 3502, 3503, 3528, 3527
2667, 2878, 2879, 2904, 2903, 3503, 3504, 3529, 3528
2668, 2879, 2880, 2905, 2904, 3504, 3505, 3530, 3529
2669, 2880, 2881, 2906, 2905, 3505, 3506, 3531, 3530
2670, 2881, 2882, 2907, 2906, 3506, 3507, 3532, 3531
2671, 2882, 2883, 2908, 2907, 3507, 3508, 3533, 3532
2672, 2883, 2884, 2909, 2908, 3508, 3509, 3534, 3533
2673, 2884, 2885, 2910, 2909, 3509, 3510, 3535, 3534
2674, 2885, 2886, 2911, 2910, 3510, 3511, 3536, 3535
2675, 2886, 2887, 2912, 2911, 3511, 3512, 3537, 3536
2676, 2887, 2888, 2913, 2912, 3512, 3513, 3538, 3537
2677, 2888, 2889, 2914, 2913, 3513, 3514, 3539, 3538
2678, 2889, 2890, 2915, 2914, 3514, 3515, 3540, 3539
2679, 2890, 2891, 2916, 2915, 3515, 3516, 3541, 3540
2680, 2891, 2892, 2917, 2916, 3516, 3517, 3542, 3541
2681, 2892, 2893, 2918, 2917, 3517, 3518, 3543, 3542
2682, 2893, 2894, 2919, 2918, 3518, 3519, 3544, 3543
2683, 2894, 2895, 2920, 2919, 3519, 3520, 3545, 3544
2684, 2895, 2896, 2921, 2920, 3520, 3521, 3546, 3545
2685, 2896, 2897, 2922, 2921, 3521, 3522, 3547, 3546
2686, 2897, 2898, 2923, 2922, 3522, 3523, 3548, 3547
2687, 2898, 2899, 2924, 2923, 3523, 3524, 3549, 3548
2688, 2899, 2900, 2925, 2924, 3524, 3525, 3550, 3549
2689, 2901, 2902, 2927, 2926, 3526, 3527, 3552, 3551
2690, 2902, 2903, 2928, 2927, 3527, 3528, 3553, 3552
2691, 2903, 2904, 2929, 2928, 3528, 3529, 3554, 3553
2692, 2904, 2905, 2930, 2929, 3529, 3530, 3555, 3554
2693, 2905, 2906, 2931, 2930, 3530, 3531, 3556, 3555
2694, 2906, 2907, 2932, 2931, 3531, 3532, 3557, 3556
2695, 2907, 2908, 2933, 2932, 3532, 3533, 3558, 3557
2696, 2908, 2909, 2934, 2933, 3533, 3534, 3559, 3558
2697, 2909, 2910, 2935, 2934, 3534, 3535, 3560, 3559
2698, 2910, 2911, 2936, 2935, 3535, 3536, 3561, 3560
2699, 2911, 2912, 2937, 2936, 3536, 3537, 3562, 3561
2700, 2912, 2913, 2938, 2937, 3537, 3538, 3563, 3562
2701, 2913, 2914, 2939, 2938, 3538, 3539, 3564, 3563
2702, 2914, 2915, 2940, 2939, 3539, 3540, 3565, 3564
2703, 2915, 2916, 2941, 2940, 3540, 3541, 3566, 3565
2704, 2916, 2917, 2942, 2941, 3541, 3542, 3567, 3566
2705, 2917, 2918, 2943, 2942, 3542, 3543, 3568, 3567
2706, 2918, 2919, 2944, 2943, 3543, 3544, 3569, 3568
2707, 2919, 2920, 2945, 2944, 3544, 3545, 3570, 3569
2708, 2920, 2921, 2946, 2945, 3545, 3546, 3571, 3570
2709, 2921, 2922, 2947, 2946, 3546, 3547, 3572, 3571
2710, 2922, 2923, 2948, 2947, 3547, 3548, 3573, 3572
2711, 2923, 2924, 2949, 2948, 3548, 3549, 3574, 3573
2712, 2924, 2925, 2950, 2949, 3549, 3550, 3575, 3574
2713, 2926, 2927, 2952, 2951, 3551, 3552, 3577, 3576
2714, 2927, 2928, 2953, 2952, 3552, 3553, 3578, 3577
2715, 2928, 2929, 2954, 2953, 3553, 3554, 3579, 3578
2716, 2929, 2930, 2955, 2954, 3554, 3555, 3580, 3579
2717, 2930, 2931, 2956, 2955, 3555, 3556, 3581, 3580
2718, 2931, 2932, 2957, 2956, 3556, 3557, 3582, 3581
2719, 2932, 2933, 2958, 2957, 3557, 3558, 3583, 3582
2720, 2933, 2934, 2959, 2958, 3558, 3559, 3584, 3583
2721, 2934, 2935, 2960, 2959, 3559, 3560, 3585, 3584
2722, 2935, 2936, 2961, 2960, 3560, 3561, 3586, 3585
2723, 2936, 2937, 2962, 2961, 3561, 3562, 3587, 3586
2724, 2937, 2938, 2963, 2962, 3562, 3563, 3588, 3587
2725, 2938, 2939, 2964, 2963, 3563, 3564, 3589, 3588
2726, 2939, 2940, 2965, 2964, 3564, 3565, 3590, 3589
2727, 2940, 2941, 2966, 2965, 3565, 3566, 3591, 3590
2728, 2941, 2942, 2967, 2966, 3566, 3567, 3592, 3591
2729, 2942, 2943, 2968, 2967, 3567, 3568, 3593, 3592
2730, 2943, 2944, 2969, 2968, 3568, 3569, 3594, 3593
2731, 2944, 2945, 2970, 2969, 3569, 3570, 3595, 3594
2732, 2945, 2946, 2971, 2970, 3570, 3571, 3596, 3595
2733, 2946, 2947, 2972, 2971, 3571, 3572, 3597, 3596
2734, 2947, 2948, 2973, 2972, 3572, 3573, 3598, 3597
2735, 2948, 2949, 2974, 2973, 3573, 3574, 3599, 3598
2736, 2949, 2950, 2975, 2974, 3574, 3575, 3600, 3599
2737, 2951, 2952, 2977, 2976, 3576, 3577, 3602, 3601
2738, 2952, 2953, 2978, 2977, 3577, 3578, 3603, 3602
2739, 2953, 2954, 2979, 2978, 3578, 3579, 3604, 3603
2740, 2954, 2955, 2980, 2979, 3579, 3580, 3605, 3604
2741, 2955, 2956, 2981, 2980, 3580, 3581, 3606, 3605
2742, 2956, 2957, 2982, 2981, 3581, 3582, 3607, 3606
2743, 2957, 2958, 2983, 2982, 3582, 3583, 3608, 3607
2744, 2958, 2959, 2984, 2983, 3583, 3584, 3609, 3608
2745, 2959, 2960, 2985, 2984, 3584, 3585, 3610, 3609
2746, 2960, 2961, 2986, 2985, 3585, 3586, 3611, 3610
2747, 2961, 2962, 2987, 2986, 3586, 3587, 3612, 3611
2748, 2962, 2963, 2988, 2987, 3587, 3588, 3613, 3612
2749, 2963, 2964, 2989, 2988, 3588, 3589, 3614, 3613
2750, 2964, 2965, 2990, 2989, 3589, 3590, 3615, 3614
2751, 2965, 2966, 2991, 2990, 3590, 3591, 3616, 3615
2752, 2966, 2967, 2992, 2991, 3591, 3592, 3617, 3616
2753, 2967, 2968, 2993, 2992, 3592, 3593, 3618, 3617
2754, 2968, 2969, 2994, 2993, 3593, 3594, 3619, 3618
2755, 2969, 2970, 2995, 2994, 3594, 3595, 3620, 3619
2756, 2970, 2971, 2996, 2995, 3595, 3596, 3621, 3620
2757, 2971, 2972, 2997, 2996, 3596, 3597, 3622, 3621
2758, 2972, 2973, 2998, 2997, 3597, 3598, 3623, 3622
2759, 2973, 2974, 2999, 2998, 3598, 3599, 3624, 3623
2760, 2974, 2975, 3000, 2999, 3599, 3600, 3625, 3624
2761, 2976, 2977, 3002, 3001, 3601, 3602, 3627, 3626
2762, 2977, 2978, 3003, 3002, 3602, 3603, 3628, 3627
2763, 2978, 2979, 3004, 3003, 3603, 3604, 3629, 3628
2764, 2979, 2980, 3005, 3004, 3604, 3605, 3630, 3629
2765, 2980, 2981, 3006, 3005, 3605, 3606, 3631, 3630
2766, 2981, 2982, 3007, 3006, 3606, 3607, 3632, 3631
2767, 2982, 2983, 3008, 3007, 3607, 3608, 3633, 3632
2768, 2983, 2984, 3009, 3008, 3608, 3609, 3634, 3633
2769, 2984, 2985, 3010, 3009, 3609, 3610, 3635, 3634
2770, 2985, 2986, 3011, 3010, 3610, 3611, 3636, 3635
2771, 2986, 2987, 3012, 3011, 3611, 3612, 3637, 3636
2772, 2987, 2988, 3013, 3012, 3612, 3613, 3638, 3637
2773, 2988, 2989, 3014, 3013, 3613, 3614, 3639, 3638
2774, 2989, 2990, 3015, 3014, 3614, 3615, 3640, 3639
2775, 2990, 2991, 3016, 3015, 3615, 3616, 3641, 3640
2776, 2991, 2992, 3017, 3016, 3616, 3617, 3642, 3641
2777, 2992, 2993, 3018, 3017, 3617, 3618, 3643, 3642
2778, 2993, 2994, 3019, 3018, 3618, 3619, 3644, 3643
2779, 2994, 2995, 3020, 3019, 3619, 3620, 3645, 3644
2780, 2995, 2996, 3021, 3020, 3620, 3621, 3646, 3645
2781, 2996, 2997, 3022, 3021, 3621, 3622, 3647, 3646
2782, 2997, 2998, 3023, 3022, 3622, 3623, 3648, 3647
2783, 2998, 2999, 3024, 3023, 3623, 3624, 3649, 3648
2784, 2999, 3000, 3025, 3024, 3624, 3625, 3650, 3649
2785, 3001, 3002, 3027, 3026, 3626, 3627, 3652, 3651
2786, 3002, 3003, 3028, 3027, 3627, 3628, 3653, 3652
2787, 3003, 3004, 3029, 3028, 3628, 3629, 3654, 3653
2788, 3004, 3005, 3030, 3029, 3629, 3630, 3655, 3654
2789, 3005, 3006, 3031, 3030, 3630, 3631, 3656, 3655
2790, 3006, 3007, 3032, 3031, 3631, 3632, 3657, 3656
2791, 3007, 3008, 3033, 3032, 3632, 3633, 3658, 3657
2792, 3008, 3009, 3034, 3033, 3633, 3634, 3659, 3658
2793, 3009, 3010, 3035, 3034, 3634, 3635, 3660, 3659
2794, 3010, 3011, 3036, 3035, 3635, 3636, 3661, 3660
2795, 3011, 3012, 3037, 3036, 3636, 3637, 3662, 3661
2796, 3012, 3013, 3038, 3037, 3637, 3638, 3663, 3662
2797, 3013, 3014, 3039, 3038, 3638, 3639, 3664, 3663
2798, 3014, 3015, 3040, 3039, 3639, 3640, 3665, 3664
2799, 3015, 3016, 3041, 3040, 3640, 3641, 3666, 3665
2800, 3016, 3017, 3042, 3041, 3641, 3642, 3667, 3666
2801, 3017, 3018, 3043, 3042, 3642, 3643, 3668, 3667
2802, 3018, 3019, 3044, 3043, 3643, 3644, 3669, 3668
2803, 3019, 3020, 3045, 3044, 3644, 3645, 3670, 3669
2804, 3020, 3021, 3046, 3045, 3645, 3646, 3671, 3670
2805, 3021, 3022, 3047, 3046, 3646, 3647, 3672, 3671
2806, 3022, 3023, 3048, 3047, 3647, 3648, 3673, 3672
2807, 3023, 3024, 3049, 3048, 3648, 3649, 3674, 3673
2808, 3024, 3025, 3050, 3049, 3649, 3650, 3675, 3674
2809, 3026, 3027, 3052, 3051, 3651, 3652, 3677, 3676
2810, 3027, 3028, 3053, 3052, 3652, 3653, 3678, 3677
2811, 3028, 3029, 3054, 3053, 3653, 3654, 3679, 3678
2812, 3029, 3030, 3055, 3054, 3654, 3655, 3680, 3679
2813, 3030, 3031, 3056, 3055, 3655, 3656, 3681, 3680
2814, 3031, 3032, 3057, 3056, 3656, 3657, 3682, 3681
2815, 3032, 3033, 3058, 3057, 3657, 3658, 3683, 3682
2816, 3033, 3034, 3059, 3058, 3658, 3659, 3684, 3683
2817, 3034, 3035, 3060, 3059, 3659, 3660, 3685, 3684
2818, 3035, 3036, 3061, 3060, 3660, 3661, 3686, 3685
2819, 3036, 3037, 3062, 3061, 3661, 3662, 3687, 3686
2820, 3037, 3038, 3063, 3062, 3662, 3663, 3688, 3687
2821, 3038, 3039, 3064, 3063, 3663, 3664, 3689, 3688
2822, 3039, 3040, 3065, 3064, 3664, 3665, 3690, 3689
2823, 3040, 3041, 3066, 3065, 3665, 3666, 3691, 3690
2824, 3041, 3042, 3067, 3066, 3666, 3667, 3692, 3691
2825, 3042, 3043, 3068, 3067, 3667, 3668, 3693, 3692
2826, 3043, 3044, 3069, 3068, 3668, 3669, 3694, 3693
2827, 3044, 3045, 3070, 3069, 3669, 3670, 3695, 3694
2828, 3045, 3046, 3071, 3070, 3670, 3671, 3696, 3695
2829, 3046, 3047, 3072, 3071, 3671, 3672, 3697, 3696
2830, 3047, 3048, 3073, 3072, 3672, 3673, 3698, 3697
2831, 3048, 3049, 3074, 3073, 3673, 3674, 3699, 3698
2832, 3049, 3050, 3075, 3074, 3674, 3675, 3700, 3699
2833, 3051, 3052, 3077, 3076, 3676, 3677, 3702, 3701
2834, 3052, 3053, 3078, 3077, 3677, 3678, 3703, 3702
2835, 3053, 3054, 3079, 3078, 3678, 3679, 3704, 3703
2836, 3054, 3055, 3080, 3079, 3679, 3680, 3705, 3704
2837, 3055, 3056, 3081, 3080, 3680, 3681, 3706, 3705
2838, 3056, 3057, 3082, 3081, 3681, 3682, 3707, 3706
2839, 3057, 3058, 3083, 3082, 3682, 3683, 3708, 3707
2840, 3058, 3059, 3084, 3083, 3683, 3684, 3709, 3708
2841, 3059, 3060, 3085, 3084, 3684, 3685, 3710, 3709
2842, 3060, 3061, 3086, 3085, 3685, 3686, 3711, 3710
2843, 3061, 3062, 3087, 3086, 3686, 3687, 3712, 3711
2844, 3062, 3063, 3088, 3087, 3687, 3688, 3713, 3712
2845, 3063, 3064, 3089, 3088, 3688, 3689, 3714, 3713
2846, 3064, 3065, 3090, 3089, 3689, 3690, 3715, 3714
2847, 3065, 3066, 3091, 3090, 3690, 3691, 3716, 3715
2848, 3066, 3067, 3092, 3091, 3691, 3692, 3717, 3716
2849, 3067, 3068, 3093, 3092, 3692, 3693, 3718, 3717
2850, 3068, 3069, 3094, 3093, 3693, 3694, 3719, 3718
2851, 3069, 3070, 3095, 3094, 3694, 3695, 3720, 3719
2852, 3070, 3071, 3096, 3095, 3695, 3696, 3721, 3720
2853, 3071, 3072, 3097, 3096, 3696, 3697, 3722, 3721
2854, 3072, 3073, 3098, 3097, 3697, 3698, 3723, 3722
2855, 3073, 3074, 3099, 3098, 3698, 3699, 3724, 3723
2856, 3074, 3075, 3100, 3099, 3699, 3700, 3725, 3724
2857, 3076, 3077, 3102, 3101, 3701, 3702, 3727, 3726
2858, 3077, 3078, 3103, 3102, 3702, 3703, 3728, 3727
2859, 3078, 3079, 3104, 3103, 3703, 3704, 3729, 3728
2860, 3079, 3080, 3105, 3104, 3704, 3705, 3730, 3729
2861, 3080, 3081, 3106, 3105, 3705, 3706, 3731, 3730
2862, 3081, 3082, 3107, 3106, 3706, 3707, 3732, 3731
2863, 3082, 3083, 3108, 3107, 3707, 3708, 3733, 3732
2864, 3083, 3084, 3109, 3108, 3708, 3709, 3734, 3733
2865, 3084, 3085, 3110, 3109, 3709, 3710, 3735, 3734
2866, 3085, 3086, 3111, 3110, 3710, 3711, 3736, 3735
2867, 3086, 3087, 3112, 3111, 3711, 3712, 3737, 3736
2868, 3087, 3088, 3113, 3112, 3712, 3713, 3738, 3737
2869, 3088, 3089, 3114, 3113, 3713, 3714, 3739, 3738
2870, 3089, 3090, 3115, 3114, 3714, 3715, 3740, 3739
2871, 3090, 3091, 3116, 3115, 3715, 3716, 3741, 3740
2872, 3091, 3092, 3117, 3116, 3716, 3717, 3742, 3741
2873, 3092, 3093, 3118, 3117, 3717, 3718, 3743, 3742
2874, 3093, 3094, 3119, 3118, 3718, 3719, 3744, 3743
2875, 3094, 3095, 3120, 3119, 3719, 3720, 3745, 3744
2876, 3095, 3096, 3121, 3120, 3720, 3721, 3746, 3745
2877, 3096, 3097, 3122, 3121, 3721, 3722, 3747, 3746
2878, 3097, 3098, 3123, 3122, 3722, 3723, 3748, 3747
2879, 3098, 3099, 3124, 3123, 3723, 3724, 3749, 3748
2880, 3099, 3100, 3125, 3124, 3724, 3725, 3750, 3749
2881, 3126, 3127, 3152, 3151, 3751, 3752, 3777, 3776
2882, 3127, 3128, 3153, 3152, 3752, 3753, 3778, 3777
2883, 3128, 3129, 3154, 3153, 3753, 3754, 3779, 3778
2884, 3129, 3130, 3155, 3154, 3754, 3755, 3780, 3779
2885, 3130, 3131, 3156, 3155, 3755, 3756, 3781, 3780
2886, 3131, 3132, 3157, 3156, 3756, 3757, 3782, 3781
2887, 3132, 3133, 3158, 3157, 3757, 3758, 3783, 3782
2888, 3133, 3134, 3159, 3158, 3758, 3759, 3784, 3783
2889, 3134, 3135, 3160, 3159, 3759, 3760, 3785, 3784
2890, 3135, 3136, 3161, 3160, 3760, 3761, 3786, 3785
2891, 3136, 3137, 3162, 3161, 3761, 3762, 3787, 3786
2892, 3137, 3138, 3163, 3162, 3762, 3763, 3788, 3787
2893, 3138, 3139, 3164, 3163, 3763, 3764, 3789, 3788
2894, 3139, 3140, 3165, 3164, 3764, 3765, 3790, 3789
2895, 3140, 3141, 3166, 3165, 3765, 3766, 3791, 3790
2896, 3141, 3142, 3167, 3166, 3766, 3767, 3792, 3791
2897, 3142, 3143, 3168, 3167, 3767, 3768, 3793, 3792
2898, 3143, 3144, 3169, 3168, 3768, 3769, 3794, 3793
2899, 3144, 3145, 3170, 3169, 3769, 3770, 3795, 3794
2900, 3145, 3146, 3171, 3170, 3770, 3771, 3796, 3795
2901, 3146, 3147, 3172, 3171, 3771, 3772, 3797, 3796
2902, 3147, 3148, 3173, 3172, 3772, 3773, 3798, 3797
2903, 3148, 3149, 3174, 3173, 3773, 3774, 3799, 3798
2904, 3149, 3150, 3175, 3174, 3774, 3775, 3800, 3799
2905, 3151, 3152, 3177, 3176, 3776, 3777, 3802, 3801
2906, 3152, 3153, 3178, 3177, 3777, 3778, 3803, 3802
2907, 3153, 3154, 3179, 3178, 3778, 3779, 3804, 3803
2908, 3154, 3155, 3180, 3179, 3779, 3780, 3805, 3804
2909, 3155, 3156, 3181, 3180, 3780, 3781, 3806, 3805
2910, 3156, 3157, 3182, 3181, 3781, 3782, 3807, 3806
2911, 3157, 3158, 3183, 3182, 3782, 3783, 3808, 3807
2912, 3158, 3159, 3184, 3183, 3783, 3784, 3809, 3808
2913, 3159, 3160, 3185, 3184, 3784, 3785, 3810, 3809
2914, 3160, 3161, 3186, 3185, 3785, 3786, 3811, 3810
2915, 3161, 3162, 3187, 3186, 3786, 3787, 3812, 3811
2916, 3162, 3163, 3188, 3187, 3787, 3788, 3813, 3812
2917, 3163, 3164, 3189, 3188, 3788, 3789, 3814, 3813
2918, 3164, 3165, 3190, 3189, 3789, 3790, 3815, 3814
2919, 3165, 3166, 3191, 3190, 3790, 3791, 3816, 3815
2920, 3166, 3167, 3192, 3191, 3791, 3792, 3817, 3816
2921, 3167, 3168, 3193, 3192, 3792, 3793, 3818, 3817
2922, 3168, 3169, 3194, 3193, 3793, 3794, 3819, 3818
2923, 3169, 3170, 3195, 3194, 3794, 3795, 3820, 3819
2924, 3170, 3171, 3196, 3195, 3795, 3796, 3821, 3820
2925, 3171, 3172, 3197, 3196, 3796, 3797, 3822, 3821
2926, 3172, 3173, 3198, 3197, 3797, 3798, 3823, 3822
2927, 3173, 3174, 3199, 3198, 3798, 3799, 3824, 3823
2928, 3174, 3175, 3200, 3199, 3799, 3800, 3825, 3824
2929, 3176, 3177, 3202, 3201, 3801, 3802, 3827, 3826
2930, 3177, 3178, 3203, 3202, 3802, 3803, 3828, 3827
2931, 3178, 3179, 3204, 3203, 3803, 3804, 3829, 3828
2932, 3179, 3180, 3205, 3204, 3804, 3805, 3830, 3829
2933, 3180, 3181, 3206, 3205, 3805, 3806, 3831, 3830
2934, 3181, 3182, 3207, 3206, 3806, 3807, 3832, 3831
2935, 3182, 3183, 3208, 3207, 3807, 3808, 3833, 3832
2936, 3183, 3184, 3209, 3208, 3808, 3809, 3834, 3833
2937, 3184, 3185, 3210, 3209, 3809, 3810, 3835, 3834
2938, 3185, 3186, 3211, 3210, 3810, 3811, 3836, 3835
2939, 3186, 3187, 3212, 3211, 3811, 3812, 3837, 3836
2940, 3187, 3188, 3213, 3212, 3812, 3813, 3838, 3837
2941, 3188, 3189, 3214, 3213, 3813, 3814, 3839, 3838
2942, 3189, 3190, 3215, 3214, 3814, 3815, 3840, 3839
2943, 3190, 3191, 3216, 3215, 3815, 3816, 3841, 3840
2944, 3191, 3192, 3217, 3216, 3816, 3817, 3842, 3841
2945, 3192, 3193, 3218, 3217, 3817, 3818, 3843, 3842
2946, 3193, 3194, 3219, 3218, 3818, 3819, 3844, 3843
2947, 3194, 3195, 3220, 3219, 3819, 3820, 3845, 3844
2948, 3195, 3196, 3221, 3220, 3820, 3821, 3846, 3845
2949, 3196, 3197, 3222, 3221, 3821, 3822, 3847, 3846
2950, 3197, 3198, 3223, 3222, 3822, 3823, 3848, 3847
2951, 3198, 3199, 3224, 3223, 3823, 3824, 3849, 3848
2952, 3199, 3200, 3225, 3224, 3824, 3825, 3850, 3849
2953, 3201, 3202, 3227, 3226, 3826, 3827, 3852, 3851
2954, 3202, 3203, 3228, 3227, 3827, 3828, 3853, 3852
2955, 3203, 3204, 3229, 3228, 3828, 3829, 3854, 3853
2956, 3204, 3205, 3230, 3229, 3829, 3830, 3855, 3854
2957, 3205, 3206, 3231, 3230, 3830, 3831, 3856, 3855
2958, 3206, 3207, 3232, 3231, 3831, 3832, 3857, 3856
2959, 3207, 3208, 3233, 3232, 3832, 3833, 3858, 3857
2960, 3208, 3209, 3234, 3233, 3833, 3834, 3859, 3858
2961, 3209, 3210, 3235, 3234, 3834, 3835, 3860, 3859
2962, 3210, 3211, 3236, 3235, 3835, 3836, 3861, 3860
2963, 3211, 3212, 3237, 3236, 3836, 3837, 3862, 3861
2964, 3212, 3213, 3238, 3237, 3837, 3838, 3863, 3862
2965, 3213, 3214, 3239, 3238, 3838, 3839, 3864, 3863
2966, 3214, 3215, 3240, 3239, 3839, 3840, 3865, 3864
2967, 3215, 3216, 3241, 3240, 3840, 3841, 3866, 3865
2968, 3216, 3217, 3242, 3241, 3841, 3842, 3867, 3866
2969, 3217, 3218, 3243, 3242, 3842, 3843, 3868, 3867
2970, 3218, 3219, 3244, 3243, 3843, 3844, 3869, 3868
2971, 3219, 3220, 3245, 3244, 3844, 3845, 3870, 3869
2972, 3220, 3221, 3246, 3245, 3845, 3846, 3871, 3870
2973, 3221, 3222, 3247, 3246, 3846, 3847, 3872, 3871
2974, 3222, 3223, 3248, 3247, 3847, 3848, 3873, 3872
2975, 3223, 3224, 3249, 3248, 3848, 3849, 3874, 3873
2976, 3224, 3225, 3250, 3249, 3849, 3850, 3875, 3874
2977, 3226, 3227, 3252, 3251, 3851, 3852, 3877, 3876
2978, 3227, 3228, 3253, 3252, 3852, 3853, 3878, 3877
2979, 3228, 3229, 3254, 3253, 3853, 3854, 3879, 3878
2980, 3229, 3230, 3255, 3254, 3854, 3855, 3880, 3879
2981, 3230, 3231, 3256, 3255, 3855, 3856, 3881, 3880
2982, 3231, 3232, 3257, 3256, 3856, 3857, 3882, 3881
2983, 3232, 3233, 3258, 3257, 3857, 3858, 3883, 3882
2984, 3233, 3234, 3259, 3258, 3858, 3859, 3884, 3883
2985, 3234, 3235, 3260, 3259, 3859, 3860, 3885, 3884
2986, 3235, 3236, 3261, 3260, 3860, 3861, 3886, 3885
2987, 3236, 3237, 3262, 3261, 3861, 3862, 3887, 3886
2988, 3237, 3238, 3263, 3262, 3862, 3863, 3888, 3887
2989, 3238, 3239, 3264, 3263, 3863, 3864, 3889, 3888
2990, 3239, 3240, 3265, 3264, 3864, 3865, 3890, 3889
2991, 3240, 3241, 3266, 3265, 3865, 3866, 3891, 3890
2992, 3241, 3242, 3267, 3266, 3866, 3867, 3892, 3891
2993, 3242, 3243, 3268, 3267, 3867, 3868, 3893, 3892
2994, 3243, 3244, 3269, 3268, 3868, 3869, 3894, 3893
2995, 3244, 3245, 3270, 3269, 3869, 3870, 3895, 3894
2996, 3245, 3246, 3271, 3270, 3870, 3871, 3896, 3895
2997, 3246, 3247, 3272, 3271, 3871, 3872, 3897, 3896
2998, 3247, 3248, 3273, 3272, 3872, 3873, 3898, 3897
2999, 3248, 3249, 3274, 3273, 3873, 3874, 3899, 3898
3000, 3249, 3250, 3275, 3274, 3874, 3875, 3900, 3899
3001, 3251, 3252, 3277, 3276, 3876, 3877, 3902, 3901
3002, 3252, 3253, 3278, 3277, 3877, 3878, 3903, 3902
3003, 3253, 3254, 3279, 3278, 3878, 3879, 3904, 3903
3004, 3254, 3255, 3280, 3279, 3879, 3880, 3905, 3904
3005, 3255, 3256, 3281, 3280, 3880, 3881, 3906, 3905
3006, 3256, 3257, 3282, 3281, 3881, 3882, 3907, 3906
3007, 3257, 3258, 3283, 3282, 3882, 3883, 3908, 3907
3008, 3258, 3259, 3284, 3283, 3883, 3884, 3909, 3908
3009, 3259, 3260, 3285, 3284, 3884, 3885, 3910, 3909
3010, 3260, 3261, 3286, 3285, 3885, 3886, 3911, 3910
3011, 3261, 3262, 3287, 3286, 3886, 3887, 3912, 3911
3012, 3262, 3263, 3288, 3287, 3887, 3888, 3913, 3912
3013, 3263, 3264, 3289, 3288, 3888, 3889, 3914, 3913
3014, 3264, 3265, 3290, 3289, 3889, 3890, 3915, 3914
3015, 3265, 3266, 3291, 3290, 3890, 3891, 3916, 3915
3016, 3266, 3267, 3292, 3291, 3891, 3892, 3917, 3916
3017, 3267, 3268, 3293, 3292, 3892, 3893, 3918, 3917
3018, 3268, 3269, 3294, 3293, 3893, 3894, 3919, 3918
3019, 3269, 3270, 3295, 3294, 3894, 3895, 3920, 3919
3020, 3270, 3271, 3296, 3295, 3895, 3896, 3921, 3920
3021, 3271, 3272, 3297, 3296, 3896, 3897, 3922, 3921
3022, 3272, 3273, 3298, 3297, 3897, 3898, 3923, 3922
3023, 3273, 3274, 3299, 3298, 3898, 3899, 3924, 3923
3024, 3274, 3275, 3300, 3299, 3899, 3900, 3925, 3924
3025, 3276, 3277, 3302, 3301, 3901, 3902, 3927, 3926
3026, 3277, 3278, 3303, 3302, 3902, 3903, 3928, 3927
3027, 3278, 3279, 3304, 3303, 3903, 3904, 3929, 3928
3028, 3279, 3280, 3305, 3304, 3904, 3905, 3930, 3929
3029, 3280, 3281, 3306, 3305, 3905, 3906, 3931, 3930
3030, 3281, 3282, 3307, 3306, 3906, 3907, 3932, 3931
3031, 3282, 3283, 3308, 3307, 3907, 3908, 3933, 3932
3032, 3283, 3284, 3309, 3308, 3908, 3909, 3934, 3933
3033, 3284, 3285, 3310, 3309, 3909, 3910, 3935, 3934
3034, 3285, 3286, 3311, 3310, 3910, 3911, 3936, 3935
3035, 3286, 3287, 3312, 3311, 3911, 3912, 3937, 3936
3036, 3287, 3288, 3313, 3312, 3912, 3913, 3938, 3937
3037, 3288, 3289, 3314, 3313, 3913, 3914, 3939, 3938
3038, 3289, 3290, 3315, 3314, 3914, 3915, 3940, 3939
3039, 3290, 3291, 3316, 3315, 3915, 3916, 3941, 3940
3040, 3291, 3292, 3317, 3316, 3916, 3917, 3942, 3941
3041, 3292, 3293, 3318, 3317, 3917, 3918, 3943, 3942
3042, 3293, 3294, 3319, 3318, 3918, 3919, 3944, 3943
3043, 3294, 3295, 3320, 3319, 3919, 3920, 3945, 3944
3044, 3295, 3296, 3321, 3320, 3920, 3921, 3946, 3945
3045, 3296, 3297, 3322, 3321, 3921, 3922, 3947, 3946
3046, 3297, 3298, 3323, 3322, 3922, 3923, 3948, 3947
3047, 3298, 3299, 3324, 3323, 3923, 3924, 3949, 3948
3048, 3299, 3300, 3325, 3324, 3924, 3925, 3950, 3949
3049, 3301, 3302, 3327, 3326, 3926, 3927, 3952, 3951
3050, 3302, 3303, 3328, 3327, 3927, 3928, 3953, 3952
3051, 3303, 3304, 3329, 3328, 3928, 3929, 3954, 3953
3052, 3304, 3305, 3330, 3329, 3929, 3930, 3955, 3954
3053, 3305, 3306, 3331, 3330, 3930, 3931, 3956, 3955
3054, 3306, 3307, 3332, 3331, 3931, 3932, 3957, 3956
3055, 3307, 3308, 3333, 3332, 3932, 3933, 3958, 3957
3056, 3308, 3309, 3334, 3333, 3933, 3934, 3959, 3958
3057, 3309, 3310, 3335, 3334, 3934, 3935, 3960, 3959
3058, 3310, 3311, 3336, 3335, 3935, 3936, 3961, 3960
3059, 3311, 3312, 3337, 3336, 3936, 3937, 3962, 3961
3060, 3312, 3313, 3338, 3337, 3937, 3938, 3963, 3962
3061, 3313, 3314, 3339, 3338, 3938, 3939, 3964, 3963
3062, 3314, 3315, 3340, 3339, 3939, 3940, 3965, 3964
3063, 3315, 3316, 3341, 3340, 3940, 3941, 3966, 3965
3064, 3316, 3317, 3342, 3341, 3941, 3942, 3967, 3966
3065, 3317, 3318, 3343, 3342, 3942, 3943, 3968, 3967
3066, 3318, 3319, 3344, 3343, 3943, 3944, 3969, 3968
3067, 3319, 3320, 3345, 3344, 3944, 3945, 3970, 3969
3068, 3320, 3321, 3346, 3345, 3945, 3946, 3971, 3970
3069, 3321, 3322, 3347, 3346, 3946, 3947, 3972, 3971
3070, 3322, 3323, 3348, 3347, 3947, 3948, 3973, 3972
3071, 3323, 3324, 3349, 3348, 3948, 3949, 3974, 3973
3072, 3324, 3325, 3350, 3349, 3949, 3950, 3975, 3974
3073, 3326, 3327, 3352, 3351, 3951, 3952, 3977, 3976
3074, 3327, 3328, 3353, 3352, 3952, 3953, 3978, 3977
3075, 3328, 3329, 3354, 3353, 3953, 3954, 3979, 3978
3076, 3329, 3330, 3355, 3354, 3954, 3955, 3980, 3979
3077, 3330, 3331, 3356, 3355, 3955, 3956, 3981, 3980
3078, 3331, 3332, 3357, 3356, 3956, 3957, 3982, 3981
3079, 3332, 3333, 3358, 3357, 3957, 3958, 3983, 3982
3080, 3333, 3334, 3359, 3358, 3958, 3959, 3984, 3983
3081, 3334, 3335, 3360, 3359, 3959, 3960, 3985, 3984
3082, 3335, 3336, 3361, 3360, 3960, 3961, 3986, 3985
3083, 3336, 3337, 3362, 3361, 3961, 3962, 3987, 3986
3084, 3337, 3338, 3363, 3362, 3962, 3963, 3988, 3987
3085, 3338, 3339, 3364, 3363, 3963, 3964, 3989, 3988
3086, 3339, 3340, 3365, 3364, 3964, 3965, 3990, 3989
3087, 3340, 3341, 3366, 3365, 3965, 3966, 3991, 3990
3088, 3341, 3342, 3367, 3366, 3966, 3967, 3992, 3991
3089, 3342, 3343, 3368, 3367, 3967, 3968, 3993, 3992
3090, 3343, 3344, 3369, 3368, 3968, 3969, 3994, 3993
3091, 3344, 3345, 3370, 3369, 3969, 3970, 3995, 3994
3092, 3345, 3346, 3371, 3370, 3970, 3971, 3996, 3995
3093, 3346, 3347, 3372, 3371, 3971, 3972, 3997, 3996
3094, 3347, 3348, 3373, 3372, 3972, 3973, 3998, 3997
3095, 3348, 3349, 3374, 3373, 3973, 3974, 3999, 3998
3096, 3349, 3350, 3375, 3374, 3974, 3975, 4000, 3999
3097, 3351, 3352, 3377, 3376, 3976, 3977, 4002, 4001
3098, 3352, 3353, 3378, 3377, 3977, 3978, 4003, 4002
3099, 3353, 3354, 3379, 3378, 3978, 3979, 4004, 4003
3100, 3354, 3355, 3380, 3379, 3979, 3980, 4005, 4004
3101, 3355, 3356, 3381, 3380, 3980, 3981, 4006, 4005
3102, 3356, 3357, 3382, 3381, 3981, 3982, 4007, 4006
3103, 3357, 3358, 3383, 3382, 3982, 3983, 4008, 4007
3104, 3358, 3359, 3384, 3383, 3983, 3984, 4009, 4008
3105, 3359, 3360, 3385, 3384, 3984, 3985, 4010, 4009
3106, 3360, 3361, 3386, 3385, 3985, 3986, 4011, 4010
3107, 3361, 3362, 3387, 3386, 3986, 3987, 4012, 4011
3108, 3362, 3363, 3388, 3387, 3987, 3988, 4013, 4012
3109, 3363, 3364, 3389, 3388, 3988, 3989, 4014, 4013
3110, 3364, 3365, 3390, 3389, 3989, 3990, 4015, 4014
3111, 3365, 3366, 3391, 3390, 3990, 3991, 4016, 4015
3112, 3366, 3367, 3392, 3391, 3991, 3992, 4017, 4016
3113, 3367, 3368, 3393, 3392, 3992, 3993, 4018, 4017
3114, 3368, 3369, 3394, 3393, 3993, 3994, 4019, 4018
3115, 3369, 3370, 3395, 3394, 3994, 3995, 4020, 4019
3116, 3370, 3371, 3396, 3395, 3995, 3996, 4021, 4020
3117, 3371, 3372, 3397, 3396, 3996, 3997, 4022, 4021
3118, 3372, 3373, 3398, 3397, 3997, 3998, 4023, 4022
3119, 3373, 3374, 3399, 3398, 3998, 3999, 4024, 4023
3120, 3374, 3375, 3400, 3399, 3999, 4000, 4025, 4024
3121, 3376, 3377, 3402, 3401, 4001, 4002, 4027, 4026
3122, 3377, 3378, 3403, 3402, 4002, 4003, 4028, 4027
3123, 3378, 3379, 3404, 3403, 4003, 4004, 4029, 4028
3124, 3379, 3380, 3405, 3404, 4004, 4005, 4030, 4029
3125, 3380, 3381, 3406, 3405, 4005, 4006, 4031, 4030
3126, 3381, 3382, 3407, 3406, 4006, 4007, 4032, 4031
3127, 3382, 3383, 3408, 3407, 4007, 4008, 4033, 4032
3128, 3383, 3384, 3409, 3408, 4008, 4009, 4034, 4033
3129, 3384, 3385, 3410, 3409, 4009, 4010, 4035, 4034
3130, 3385, 3386, 3411, 3410, 4010, 4011, 4036, 4035
3131, 3386, 3387, 3412, 3411, 4011, 4012, 4037, 4036
3132, 3387, 3388, 3413, 3412, 4012, 4013, 4038, 4037
3133, 3388, 3389, 3414, 3413, 4013, 4014, 4039, 4038
3134, 3389, 3390, 3415, 3414, 4014, 4015, 4040, 4039
3135, 3390, 3391, 3416, 3415, 4015, 4016, 4041, 4040
3136, 3391, 3392, 3417, 3416, 4016, 4017, 4042, 4041
3137, 3392, 3393, 3418, 3417, 4017, 4018, 4043, 4042
3138, 3393, 3394, 3419, 3418, 4018, 4019, 4044, 4043
3139, 3394, 3395, 3420, 3419, 4019, 4020, 4045, 4044
3140, 3395, 3396, 3421, 3420, 4020, 4021, 4046, 4045
3141, 3396, 3397, 3422, 3421, 4021, 4022, 4047, 4046
3142, 3397, 3398, 3423, 3422, 4022, 4023, 4048, 4047
3143, 3398, 3399, 3424, 3423, 4023, 4024, 4049, 4048
3144, 3399, 3400, 3425, 3424, 4024, 4025, 4050, 4049
3145, 3401, 3402, 3427, 3426, 4026, 4027, 4052, 4051
3146, 3402, 3403, 3428, 3427, 4027, 4028, 4053, 4052
3147, 3403, 3404, 3429, 3428, 4028, 4029, 4054, 4053
3148, 3404, 3405, 3430, 3429, 4029, 4030, 4055, 4054
3149, 3405, 3406, 3431, 3430, 4030, 4031, 4056, 4055
3150, 3406, 3407, 3432, 3431, 4031, 4032, 4057, 4056
3151, 3407, 3408, 3433, 3432, 4032, 4033, 4058, 4057
3152, 3408, 3409, 3434, 3433, 4033, 4034, 4059, 4058
3153, 3409, 3410, 3435, 3434, 4034, 4035, 4060, 4059
3154, 3410, 3411, 3436, 3435, 4035, 4036, 4061, 4060
3155, 3411, 3412, 3437, 3436, 4036, 4037, 4062, 4061
3156, 3412, 3413, 3438, 3437, 4037, 4038, 4063, 4062
3157, 3413, 3414, 3439, 3438, 4038, 4039, 4064, 4063
3158, 3414, 3415, 3440, 3439, 4039, 4040, 4065, 4064
3159, 3415, 3416, 3441, 3440, 4040, 4041, 4066, 4065
3160, 3416, 3417, 3442, 3441, 4041, 4042, 4067, 4066
3161, 3417, 3418, 3443, 3442, 4042, 4043, 4068, 4067
3162, 3418, 3419, 3444, 3443, 4043, 4044, 4069, 4068
3163, 3419, 3420, 3445, 3444, 4044, 4045, 4070, 4069
3164, 3420, 3421, 3446, 3445, 4045, 4046, 4071, 4070
3165, 3421, 3422, 3447, 3446, 4046, 4047, 4072, 4071
3166, 3422, 3423, 3448, 3447, 4047, 4048, 4073, 4072
3167, 3423, 3424, 3449, 3448, 4048, 4049, 4074, 4073
3168, 3424, 3425, 3450, 3449, 4049, 4050, 4075, 4074
3169, 3426, 3427, 3452, 3451, 4051, 4052, 4077, 4076
3170, 3427, 3428, 3453, 3452, 4052, 4053, 4078, 4077
3171, 3428, 3429, 3454, 3453, 4053, 4054, 4079, 4078
3172, 3429, 3430, 3455, 3454, 4054, 4055, 4080, 4079
3173, 3430, 3431, 3456, 3455, 4055, 4056, 4081, 4080
3174, 3431, 3432, 3457, 3456, 4056, 4057, 4082, 4081
3175, 3432, 3433, 3458, 3457, 4057, 4058, 4083, 4082
3176, 3433, 3434, 3459, 3458, 4058, 4059, 4084, 4083
3177, 3434, 3435, 3460, 3459, 4059, 4060, 4085, 4084
3178, 3435, 3436, 3461, 3460, 4060, 4061, 4086, 4085
3179, 3436, 3437, 3462, 3461, 4061, 4062, 4087, 4086
3180, 3437, 3438, 3463, 3462, 4062, 4063, 4088, 4087
3181, 3438, 3439, 3464, 3463, 4063, 4064, 4089, 4088
3182, 3439, 3440, 3465, 3464, 4064, 4065, 4090, 4089
3183, 3440, 3441, 3466, 3465, 4065, 4066, 4091, 4090
3184, 3441, 3442, 3467, 3466, 4066, 4067, 4092, 4091
3185, 3442, 3443, 3468, 3467, 4067, 4068, 4093, 4092
3186, 3443, 3444, 3469, 3468, 4068, 4069, 4094, 4093
3187, 3444, 3445, 3470, 3469, 4069, 4070, 4095, 4094
3188, 3445, 3446, 3471, 3470, 4070, 4071, 4096, 4095
3189, 3446, 3447, 3472, 3471, 4071, 4072, 4097, 4096
3190, 3447, 3448, 3473, 3472, 4072, 4073, 4098, 4097
3191, 3448, 3449, 3474, 3473, 4073, 4074, 4099, 4098
3192, 3449, 3450, 3475, 3474, 4074, 4075, 4100, 4099
3193, 3451, 3452, 3477, 3476, 4076, 4077, 4102, 4101
3194, 3452, 3453, 3478, 3477, 4077, 4078, 4103, 4102
3195, 3453, 3454, 3479, 3478, 4078, 4079, 4104, 4103
3196, 3454, 3455, 3480, 3479, 4079, 4080, 4105, 4104
3197, 3455, 3456, 3481, 3480, 4080, 4081, 4106, 4105
3198, 3456, 3457, 3482, 3481, 4081, 4082, 4107, 4106
3199, 3457, 3458, 3483, 3482, 4082, 4083, 4108, 4107
3200, 3458, 3459, 3484, 3483, 4083, 4084, 4109, 4108
3201, 3459, 3460, 3485, 3484, 4084, 4085, 4110, 4109
3202, 3460, 3461, 3486, 3485, 4085, 4086, 4111, 4110
3203, 3461, 3462, 3487, 3486, 4086, 4087, 4112, 4111
3204, 3462, 3463, 3488, 3487, 4087, 4088, 4113, 4112
3205, 3463, 3464, 3489, 3488, 4088, 4089, 4114, 4113
3206, 3464, 3465, 3490, 3489, 4089, 4090, 4115, 4114
3207, 3465, 3466, 3491, 3490, 4090, 4091, 4116, 4115
3208, 3466, 3467, 3492, 3491, 4091, 4092, 4117, 4116
3209, 3467, 3468, 3493, 3492, 4092, 4093, 4118, 4117
3210, 3468, 3469, 3494, 3493, 4093, 4094, 4119, 4118
3211, 3469, 3470, 3495, 3494, 4094, 4095, 4120, 4119
3212, 3470, 3471, 3496, 3495, 4095, 4096, 4121, 4120
3213, 3471, 3472, 3497, 3496, 4096, 4097, 4122, 4121
3214, 3472, 3473, 3498, 3497, 4097, 4098, 4123, 4122
3215, 3473, 3474, 3499, 3498, 4098, 4099, 4124, 4123
3216, 3474, 3475, 3500, 3499, 4099, 4100, 4125, 4124
3217, 3476, 3477, 3502, 3501, 4101, 4102, 4127, 4126
3218, 3477, 3478, 3503, 3502, 4102, 4103, 4128, 4127
3219, 3478, 3479, 3504, 3503, 4103, 4104, 4129, 4128
3220, 3479, 3480, 3505, 3504, 4104, 4105, 4130, 4129
3221, 3480, 3481, 3506, 3505, 4105, 4106, 4131, 4130
3222, 3481, 3482, 3507, 3506, 4106, 4107, 4132, 4131
3223, 3482, 3483, 3508, 3507, 4107, 4108, 4133, 4132
3224, 3483, 3484, 3509, 3508, 4108, 4109, 4134, 4133
3225, 3484, 3485, 3510, 3509, 4109, 4110, 4135, 4134
3226, 3485, 3486, 3511, 3510, 4110, 4111, 4136, 4135
3227, 3486, 3487, 3512, 3511, 4111, 4112, 4137, 4136
3228, 3487, 3488, 3513, 3512, 4112, 4113, 4138, 4137
3229, 3488, 3489, 3514, 3513, 4113, 4114, 4139, 4138
3230, 3489, 3490, 3515, 3514, 4114, 4115, 4140, 4139
3231, 3490, 3491, 3516, 3515, 4115, 4116, 4141, 4140
3232, 3491, 3492, 3517, 3516, 4116, 4117, 4142, 4141
3233, 3492, 3493, 3518, 3517, 4117, 4118, 4143, 4142
3234, 3493, 3494, 3519, 3518, 4118, 4119, 4144, 4143
3235, 3494, 3495, 3520, 3519, 4119, 4120, 4145, 4144
3236, 3495, 3496, 3521, 3520, 4120, 4121, 4146, 4145
3237, 3496, 3497, 3522, 3521, 4121, 4122, 4147, 4146
3238, 3497, 3498, 3523, 3522, 4122, 4123, 4148, 4147
3239, 3498, 3499, 3524, 3523, 4123, 4124, 4149, 4148
3240, 3499, 3500, 3525, 3524, 4124, 4125, 4150, 4149
3241, 3501, 3502, 3527, 3526, 4126, 4127, 4152, 4151
3242, 3502, 3503, 3528, 3527, 4127, 4128, 4153, 4152
3243, 3503, 3504, 3529, 3528, 4128, 4129, 4154, 4153
3244, 3504, 3505, 3530, 3529, 4129, 4130, 4155, 4154
3245, 3505, 3506, 3531, 3530, 4130, 4131, 4156, 4155
3246, 3506, 3507, 3532, 3531, 4131, 4132, 4157, 4156
3247, 3507, 3508, 3533, 3532, 4132, 4133, 4158, 4157
3248, 3508, 3509, 3534, 3533, 4133, 4134, 4159, 4158
3249, 3509, 3510, 3535, 3534, 4134, 4135, 4160, 4159
3250, 3510, 3511, 3536, 3535, 4135, 4136, 4161, 4160
3251, 3511, 3512, 3537, 3536, 4136, 4137, 4162, 4161
3252, 3512, 3513, 3538, 3537, 4137, 4138, 4163, 4162
3253, 3513, 3514, 3539, 3538, 4138, 4139, 4164, 4163
3254, 3514, 3515, 3540, 3539, 4139, 4140, 4165, 4164
3255, 3515, 3516, 3541, 3540, 4140, 4141, 4166, 4165
3256, 3516, 3517, 3542, 3541, 4141, 4142, 4167, 4166
3257, 3517, 3518, 3543, 3542, 4142, 4143, 4168, 4167
3258, 3518, 3519, 3544, 3543, 4143, 4144, 4169, 4168
3259, 3519, 3520, 3545, 3544, 4144, 4145, 4170, 4169
3260, 3520, 3521, 3546, 3545, 4145, 4146, 4171, 4170
3261, 3521, 3522, 3547, 3546, 4146, 4147, 4172, 4171
3262, 3522, 3523, 3548, 3547, 4147, 4148, 4173, 4172
3263, 3523, 3524, 3549, 3548, 4148, 4149, 4174, 4173
3264, 3524, 3525, 3550, 3549, 4149, 4150, 4175, 4174
3265, 3526, 3527, 3552, 3551, 4151, 4152, 4177, 4176
3266, 3527, 3528, 3553, 3552, 4152, 4153, 4178, 4177
3267, 3528, 3529, 3554, 3553, 4153, 4154, 4179, 4178
3268, 3529, 3530, 3555, 3554, 4154, 4155, 4180, 4179
3269, 3530, 3531, 3556, 3555, 4155, 4156, 4181, 4180
3270, 3531, 3532, 3557, 3556, 4156, 4157, 4182, 4181
3271, 3532, 3533, 3558, 3557, 4157, 4158, 4183, 4182
3272, 3533, 3534, 3559, 3558, 4158, 4159, 4184, 4183
3273, 3534, 3535, 3560, 3559, 4159, 4160, 4185, 4184
3274, 3535, 3536, 3561, 3560, 4160, 4161, 4186, 4185
3275, 3536, 3537, 3562, 3561, 4161, 4162, 4187, 4186
3276, 3537, 3538, 3563, 3562, 4162, 4163, 4188, 4187
3277, 3538, 3539, 3564, 3563, 4163, 4164, 4189, 4188
3278, 3539, 3540, 3565, 3564, 4164, 4165, 4190, 4189
3279, 3540, 3541, 3566, 3565, 4165, 4166, 4191, 4190
3280, 3541, 3542, 3567, 3566, 4166, 4167, 4192, 4191
3281, 3542, 3543, 3568, 3567, 4167, 4168, 4193, 4192
3282, 3543, 3544, 3569, 3568, 4168, 4169, 4194, 4193
3283, 3544, 3545, 3570, 3569, 4169, 4170, 4195, 4194
3284, 3545, 3546, 3571, 3570, 4170, 4171, 4196, 4195
3285, 3546, 3547, 3572, 3571, 4171, 4172, 4197, 4196
3286, 3547, 3548, 3573, 3572, 4172, 4173, 4198, 4197
3287, 3548, 3549, 3574, 3573, 4173, 4174, 4199, 4198
3288, 3549, 3550, 3575, 3574, 4174, 4175, 4200, 4199
3289, 3551, 3552, 3577, 3576, 4176, 4177, 4202, 4201
3290, 3552, 3553, 3578, 3577, 4177, 4178, 4203, 4202
3291, 3553, 3554, 3579, 3578, 4178, 4179, 4204, 4203
3292, 3554, 3555, 3580, 3579, 4179, 4180, 4205, 4204
3293, 3555, 3556, 3581, 3580, 4180, 4181, 4206, 4205
3294, 3556, 3557, 3582, 3581, 4181, 4182, 4207, 4206
3295, 3557, 3558, 3583, 3582, 4182, 4183, 4208, 4207
3296, 3558, 3559, 3584, 3583, 4183, 4184, 4209, 4208
3297, 3559, 3560, 3585, 3584, 4184, 4185, 4210, 4209
3298, 3560, 3561, 3586, 3585, 4185, 4186, 4211, 4210
3299, 3561, 3562, 3587, 3586, 4186, 4187, 4212, 4211
3300, 3562, 3563, 3588, 3587, 4187, 4188, 4213, 4212
3301, 3563, 3564, 3589, 3588, 4188, 4189, 4214, 4213
3302, 3564, 3565, 3590, 3589, 4189, 4190, 4215, 4214
3303, 3565, 3566, 3591, 3590, 4190, 4191, 4216, 4215
3304, 3566, 3567, 3592, 3591, 4191, 4192, 4217, 4216
3305, 3567, 3568, 3593, 3592, 4192, 4193, 4218, 4217
3306, 3568, 3569, 3594, 3593, 4193, 4194, 4219, 4218
3307, 3569, 3570, 3595, 3594, 4194, 4195, 4220, 4219
3308, 3570, 3571, 3596, 3595, 4195, 4196, 4221, 4220
3309, 3571, 3572, 3597, 3596, 4196, 4197, 4222, 4221
3310, 3572, 3573, 3598, 3597, 4197, 4198, 4223, 4222
3311, 3573, 3574, 3599, 3598, 4198, 4199, 4224, 4223
3312, 3574, 3575, 3600, 3599, 4199, 4200, 4225, 4224
3313, 3576, 3577, 3602, 3601, 4201, 4202, 4227, 4226
3314, 3577, 3578, 3603, 3602, 4202, 4203, 4228, 4227
3315, 3578, 3579, 3604, 3603, 4203, 4204, 4229, 4228
3316, 3579, 3580, 3605, 3604, 4204, 4205, 4230, 4229
3317, 3580, 3581, 3606, 3605, 4205, 4206, 4231, 4230
3318, 3581, 3582, 3607, 3606, 4206, 4207, 4232, 4231
3319, 3582, 3583, 3608, 3607, 4207, 4208, 4233, 4232
3320, 3583, 3584, 3609, 3608, 4208, 4209, 4234, 4233
3321, 3584, 3585, 3610, 3609, 4209, 4210, 4235, 4234
3322, 3585, 3586, 3611, 3610, 4210, 4211, 4236, 4235
3323, 3586, 3587, 3612, 3611, 4211, 4212, 4237, 4236
3324, 3587, 3588, 3613, 3612, 4212, 4213, 4238, 4237
3325, 3588, 3589, 3614, 3613, 4213, 4214, 4239, 4238
3326, 3589, 3590, 3615, 3614, 4214, 4215, 4240, 4239
3327, 3590, 3591, 3616, 3615, 4215, 4216, 4241, 4240
3328, 3591, 3592, 3617, 3616, 4216, 4217, 4242, 4241
3329, 3592, 3593, 3618, 3617, 4217, 4218, 4243, 4242
3330, 3593, 3594, 3619, 3618, 4218, 4219, 4244, 4243
3331, 3594, 3595, 3620, 3619, 4219, 4220, 4245, 4244
3332, 3595, 3596, 3621, 3620, 4220, 4221, 4246, 4245
3333, 3596, 3597, 3622, 3621, 4221, 4222, 4247, 4246
3334, 3597, 3598, 3623, 3622, 4222, 4223, 4248, 4247
3335, 3598, 3599, 3624, 3623, 4223, 4224, 4249, 4248
3336, 3599, 3600, 3625, 3624, 4224, 4225, 4250, 4249
3337, 3601, 3602, 3627, 3626, 4226, 4227, 4252, 4251
3338, 3602, 3603, 3628, 3627, 4227, 4228, 4253, 4252
3339, 3603, 3604, 3629, 3628, 4228, 4229, 4254, 4253
3340, 3604, 3605, 3630, 3629, 4229, 4230, 4255, 4254
3341, 3605, 3606, 3631, 3630, 4230, 4231, 4256, 4255
3342, 3606, 3607, 3632, 3631, 4231, 4232, 4257, 4256
3343, 3607, 3608, 3633, 3632, 4232, 4233, 4258, 4257
3344, 3608, 3609, 3634, 3633, 4233, 4234, 4259, 4258
3345, 3609, 3610, 3635, 3634, 4234, 4235, 4260, 4259
3346, 3610, 3611, 3636, 3635, 4235, 4236, 4261, 4260
3347, 3611, 3612, 3637, 3636, 4236, 4237, 4262, 4261
3348, 3612, 3613, 3638, 3637, 4237, 4238, 4263, 4262
3349, 3613, 3614, 3639, 3638, 4238, 4239, 4264, 4263
3350, 3614, 3615, 3640, 3639, 4239, 4240, 4265, 4264
3351, 3615, 3616, 3641, 3640, 4240, 4241, 4266, 4265
3352, 3616, 3617, 3642, 3641, 4241, 4242, 4267, 4266
3353, 3617, 3618, 3643, 3642, 4242, 4243, 4268, 4267
3354, 3618, 3619, 3644, 3643, 4243, 4244, 4269, 4268
3355, 3619, 3620, 3645, 3644, 4244, 4245, 4270, 4269
3356, 3620, 3621, 3646, 3645, 4245, 4246, 4271, 4270
3357, 3621, 3622, 3647, 3646, 4246, 4247, 4272, 4271
3358, 3622, 3623, 3648, 3647, 4247, 4248, 4273, 4272
3359, 3623, 3624, 3649, 3648, 4248, 4249, 4274, 4273
3360, 3624, 3625, 3650, 3649, 4249, 4250, 4275, 4274
3361, 3626, 3627, 3652, 3651, 4251, 4252, 4277, 4276
3362, 3627, 3628, 3653, 3652, 4252, 4253, 4278, 4277
3363, 3628, 3629, 3654, 3653, 4253, 4254, 4279, 4278
3364, 3629, 3630, 3655, 3654, 4254, 4255, 4280, 4279
3365, 3630, 3631, 3656, 3655, 4255, 4256, 4281, 4280
3366, 3631, 3632, 3657, 3656, 4256, 4257, 4282, 4281
3367, 3632, 3633, 3658, 3657, 4257, 4258, 4283, 4282
3368, 3633, 3634, 3659, 3658, 4258, 4259, 4284, 4283
3369, 3634, 3635, 3660, 3659, 4259, 4260, 4285, 4284
3370, 3635, 3636, 3661, 3660, 4260, 4261, 4286, 4285
3371, 3636, 3637, 3662, 3661, 4261, 4262, 4287, 4286
3372, 3637, 3638, 3663, 3662, 4262, 4263, 4288, 4287
3373, 3638, 3639, 3664, 3663, 4263, 4264, 4289, 4288
3374, 3639, 3640, 3665, 3664, 4264, 4265, 4290, 4289
3375, 3640, 3641, 3666, 3665, 4265, 4266, 4291, 4290
3376, 3641, 3642, 3667, 3666, 4266, 4267, 4292, 4291
3377, 3642, 3643, 3668, 3667, 4267, 4268, 4293, 4292
3378, 3643, 3644, 3669, 3668, 4268, 4269, 4294, 4293
3379, 3644, 3645, 3670, 3669, 4269, 4270, 4295, 4294
3380, 3645, 3646, 3671, 3670, 4270, 4271, 4296, 4295
3381, 3646, 3647, 3672, 3671, 4271, 4272, 4297, 4296
3382, 3647, 3648, 3673, 3672, 4272, 4273, 4298, 4297
3383, 3648, 3649, 3674, 3673, 4273, 4274, 4299, 4298
3384, 3649, 3650, 3675, 3674, 4274, 4275, 4300, 4299
3385, 3651, 3652, 3677, 3676, 4276, 4277, 4302, 4301
3386, 3652, 3653, 3678, 3677, 4277, 4278, 4303, 4302
3387, 3653, 3654, 3679, 3678, 4278, 4279, 4304, 4303
3388, 3654, 3655, 3680, 3679, 4279, 4280, 4305, 4304
3389, 3655, 3656, 3681, 3680, 4280, 4281, 4306, 4305
3390, 3656, 3657, 3682, 3681, 4281, 4282, 4307, 4306
3391, 3657, 3658, 3683, 3682, 4282, 4283, 4308, 4307
3392, 3658, 3659, 3684, 3683, 4283, 4284, 4309, 4308
3393, 3659, 3660, 3685, 3684, 4284, 4285, 4310, 4309
3394, 3660, 3661, 3686, 3685, 4285, 4286, 4311, 4310
3395, 3661, 3662, 3687, 3686, 4286, 4287, 4312, 4311
3396, 3662, 3663, 3688, 3687, 4287, 4288, 4313, 4312
3397, 3663, 3664, 3689, 3688, 4288, 4289, 4314, 4313
3398, 3664, 3665, 3690, 3689, 4289, 4290, 4315, 4314
3399, 3665, 3666, 3691, 3690, 4290, 4291, 4316, 4315
3400, 3666, 3667, 3692, 3691, 4291, 4292, 4317, 4316
3401, 3667, 3668, 3693, 3692, 4292, 4293, 4318, 4317
3402, 3668, 3669, 3694, 3693, 4293, 4294, 4319, 4318
3403, 3669, 3670, 3695, 3694, 4294, 4295, 4320, 4319
3404, 3670, 3671, 3696, 3695, 4295, 4296, 4321, 4320
3405, 3671, 3672, 3697, 3696, 4296, 4297, 4322, 4321
3406, 3672, 3673, 3698, 3697, 4297, 4298, 4323, 4322
3407, 3673, 3674, 3699, 3698, 4298, 4299, 4324, 4323
3408, 3674, 3675, 3700, 3699, 4299, 4300, 4325, 4324
3409, 3676, 3677, 3702, 3701, 4301, 4302, 4327, 4326
3410, 3677, 3678, 3703, 3702, 4302, 4303, 4328, 4327
3411, 3678, 3679, 3704, 3703, 4303, 4304, 4329, 4328
3412, 3679, 3680, 3705, 3704, 4304, 4305, 4330, 4329
3413, 3680, 3681, 3706, 3705, 4305, 4306, 4331, 4330
3414, 3681, 3682, 3707, 3706, 4306, 4307, 4332, 4331
3415, 3682, 3683, 3708, 3707, 4307, 4308, 4333, 4332
3416, 3683, 3684, 3709, 3708, 4308, 4309, 4334, 4333
3417, 3684, 3685, 3710, 3709, 4309, 4310, 4335, 4334
3418, 3685, 3686, 3711, 3710, 4310, 4311, 4336, 4335
3419, 3686, 3687, 3712, 3711, 4311, 4312, 4337, 4336
3420, 3687, 3688, 3713, 3712, 4312, 4313, 4338, 4337
3421, 3688, 3689, 3714, 3713, 4313, 4314, 4339, 4338
3422, 3689, 3690, 3715, 3714, 4314, 4315, 4340, 4339
3423, 3690, 3691, 3716, 3715, 4315, 4316, 4341, 4340
3424, 3691, 3692, 3717, 3716, 4316, 4317, 4342, 4341
3425, 3692, 3693, 3718, 3717, 4317, 4318, 4343, 4342
3426, 3693, 3694, 3719, 3718, 4318, 4319, 4344, 4343
3427, 3694, 3695, 3720, 3719, 4319, 4320, 4345, 4344
3428, 3695, 3696, 3721, 3720, 4320, 4321, 4346, 4345
3429, 3696, 3697, 3722, 3721, 4321, 4322, 4347, 4346
3430, 3697, 3698, 3723, 3722, 4322, 4323, 4348, 4347
3431, 3698, 3699, 3724, 3723, 4323, 4324, 4349, 4348
3432, 3699, 3700, 3725, 3724, 4324, 4325, 4350, 4349
3433, 3701, 3702, 3727, 3726, 4326, 4327, 4352, 4351
3434, 3702, 3703, 3728, 3727, 4327, 4328, 4353, 4352
3435, 3703, 3704, 3729, 3728, 4328, 4329, 4354, 4353
3436, 3704, 3705, 3730, 3729, 4329, 4330, 4355, 4354
3437, 3705, 3706, 3731, 3730, 4330, 4331, 4356, 4355
3438, 3706, 3707, 3732, 3731, 4331, 4332, 4357, 4356
3439, 3707, 3708, 3733, 3732, 4332, 4333, 4358, 4357
3440, 3708, 3709, 3734, 3733, 4333, 4334, 4359, 4358
3441, 3709, 3710, 3735, 3734, 4334, 4335, 4360, 4359
3442, 3710, 3711, 3736, 3735, 4335, 4336, 4361, 4360
3443, 3711, 3712, 3737, 3736, 4336, 4337, 4362, 4361
3444, 3712, 3713, 3738, 3737, 4337, 4338, 4363, 4362
3445, 3713, 3714, 3739, 3738, 4338, 4339, 4364, 4363
3446, 3714, 3715, 3740, 3739, 4339, 4340, 4365, 4364
3447, 3715, 3716, 3741, 3740, 4340, 4341, 4366, 4365
3448, 3716, 3717, 3742, 3741, 4341, 4342, 4367, 4366
3449, 3717, 3718, 3743, 3742, 4342, 4343, 4368, 4367
3450, 3718, 3719, 3744, 3743, 4343, 4344, 4369, 4368
3451, 3719, 3720, 3745, 3744, 4344, 4345, 4370, 4369
3452, 3720, 3721, 3746, 3745, 4345, 4346, 4371, 4370
3453, 3721, 3722, 3747, 3746, 4346, 4347, 4372, 4371
3454, 3722, 3723, 3748, 3747, 4347, 4348, 4373, 4372
3455, 3723, 3724, 3749, 3748, 4348, 4349, 4374, 4373
3456, 3724, 3725, 3750, 3749, 4349, 4350, 4375, 4374
3457, 3751, 3752, 3777, 3776, 4376, 4377, 4402, 4401
3458, 3752, 3753, 3778, 3777, 4377, 4378, 4403, 4402
3459, 3753, 3754, 3779, 3778, 4378, 4379, 4404, 4403
3460, 3754, 3755, 3780, 3779, 4379, 4380, 4405, 4404
3461, 3755, 3756, 3781, 3780, 4380, 4381, 4406, 4405
3462, 3756, 3757, 3782, 3781, 4381, 4382, 4407, 4406
3463, 3757, 3758, 3783, 3782, 4382, 4383, 4408, 4407
3464, 3758, 3759, 3784, 3783, 4383, 4384, 4409, 4408
3465, 3759, 3760, 3785, 3784, 4384, 4385, 4410, 4409
3466, 3760, 3761, 3786, 3785, 4385, 4386, 4411, 4410
3467, 3761, 3762, 3787, 3786, 4386, 4387, 4412, 4411
3468, 3762, 3763, 3788, 3787, 4387, 4388, 4413, 4412
3469, 3763, 3764, 3789, 3788, 4388, 4389, 4414, 4413
3470, 3764, 3765, 3790, 3789, 4389, 4390, 4415, 4414
3471, 3765, 3766, 3791, 3790, 4390, 4391, 4416, 4415
3472, 3766, 3767, 3792, 3791, 4391, 4392, 4417, 4416
3473, 3767, 3768, 3793, 3792, 4392, 4393, 4418, 4417
3474, 3768, 3769, 3794, 3793, 4393, 4394, 4419, 4418
3475, 3769, 3770, 3795, 3794, 4394, 4395, 4420, 4419
3476, 3770, 3771, 3796, 3795, 4395, 4396, 4421, 4420
3477, 3771, 3772, 3797, 3796, 4396, 4397, 4422, 4421
3478, 3772, 3773, 3798, 3797, 4397, 4398, 4423, 4422
3479, 3773, 3774, 3799, 3798, 4398, 4399, 4424, 4423
3480, 3774, 3775, 3800, 3799, 4399, 4400, 4425, 4424
3481, 3776, 3777, 3802, 3801, 4401, 4402, 4427, 4426
3482, 3777, 3778, 3803, 3802, 4402, 4403, 4428, 4427
3483, 3778, 3779, 3804, 3803, 4403, 4404, 4429, 4428
3484, 3779, 3780, 3805, 3804, 4404, 4405, 4430, 4429
3485, 3780, 3781, 3806, 3805, 4405, 4406, 4431, 4430
3486, 3781, 3782, 3807, 3806, 4406, 4407, 4432, 4431
3487, 3782, 3783, 3808, 3807, 4407, 4408, 4433, 4432
3488, 3783, 3784, 3809, 3808, 4408, 4409, 4434, 4433
3489, 3784, 3785, 3810, 3809, 4409, 4410, 4435, 4434
3490, 3785, 3786, 3811, 3810, 4410, 4411, 4436, 4435
3491, 3786, 3787, 3812, 3811, 4411, 4412, 4437, 4436
3492, 3787, 3788, 3813, 3812, 4412, 4413, 4438, 4437
3493, 3788, 3789, 3814, 3813, 4413, 4414, 4439, 4438
3494, 3789, 3790, 3815, 3814, 4414, 4415, 4440, 4439
3495, 3790, 3791, 3816, 3815, 4415, 4416, 4441, 4440
3496, 3791, 3792, 3817, 3816, 4416, 4417, 4442, 4441
3497, 3792, 3793, 3818, 3817, 4417, 4418, 4443, 4442
3498, 3793, 3794, 3819, 3818, 4418, 4419, 4444, 4443
3499, 3794, 3795, 3820, 3819, 4419, 4420, 4445, 4444
3500, 3795, 3796, 3821, 3820, 4420, 4421, 4446, 4445
3501, 3796, 3797, 3822, 3821, 4421, 4422, 4447, 4446
3502, 3797, 3798, 3823, 3822, 4422, 4423, 4448, 4447
3503, 3798, 3799, 3824, 3823, 4423, 4424, 4449, 4448
3504, 3799, 3800, 3825, 3824, 4424, 4425, 4450, 4449
3505, 3801, 3802, 3827, 3826, 4426, 4427, 4452, 4451
3506, 3802, 3803, 3828, 3827, 4427, 4428, 4453, 4452
3507, 3803, 3804, 3829, 3828, 4428, 4429, 4454, 4453
3508, 3804, 3805, 3830, 3829, 4429, 4430, 4455, 4454
3509, 3805, 3806, 3831, 3830, 4430, 4431, 4456, 4455
3510, 3806, 3807, 3832, 3831, 4431, 4432, 4457, 4456
3511, 3807, 3808, 3833, 3832, 4432, 4433, 4458, 4457
3512, 3808, 3809, 3834, 3833, 4433, 4434, 4459, 4458
3513, 3809, 3810, 3835, 3834, 4434, 4435, 4460, 4459
3514, 3810, 3811, 3836, 3835, 4435, 4436, 4461, 4460
3515, 3811, 3812, 3837, 3836, 4436, 4437, 4462, 4461
3516, 3812, 3813, 3838, 3837, 4437, 4438, 4463, 4462
3517, 3813, 3814, 3839, 3838, 4438, 4439, 4464, 4463
3518, 3814, 3815, 3840, 3839, 4439, 4440, 4465, 4464
3519, 3815, 3816, 3841, 3840, 4440, 4441, 4466, 4465
3520, 3816, 3817, 3842, 3841, 4441, 4442, 4467, 4466
3521, 3817, 3818, 3843, 3842, 4442, 4443, 4468, 4467
3522, 3818, 3819, 3844, 3843, 4443, 4444, 4469, 4468
3523, 3819, 3820, 3845, 3844, 4444, 4445, 4470, 4469
3524, 3820, 3821, 3846, 3845, 4445, 4446, 4471, 4470
3525, 3821, 3822, 3847, 3846, 4446, 4447, 4472, 4471
3526, 3822, 3823, 3848, 3847, 4447, 4448, 4473, 4472
3527, 3823, 3824, 3849, 3848, 4448, 4449, 4474, 4473
3528, 3824, 3825, 3850, 3849, 4449, 4450, 4475, 4474
3529, 3826, 3827, 3852, 3851, 4451, 4452, 4477, 4476
3530, 3827, 3828, 3853, 3852, 4452, 4453, 4478, 4477
3531, 3828, 3829, 3854, 3853, 4453, 4454, 4479, 4478
3532, 3829, 3830, 3855, 3854, 4454, 4455, 4480, 4479
3533, 3830, 3831, 3856, 3855, 4455, 4456, 4481, 4480
3534, 3831, 3832, 3857, 3856, 4456, 4457, 4482, 4481
3535, 3832, 3833, 3858, 3857, 4457, 4458, 4483, 4482
3536, 3833, 3834, 3859, 3858, 4458, 4459, 4484, 4483
3537, 3834, 3835, 3860, 3859, 4459, 4460, 4485, 4484
3538, 3835, 3836, 3861, 3860, 4460, 4461, 4486, 4485
3539, 3836, 3837, 3862, 3861, 4461, 4462, 4487, 4486
3540, 3837, 3838, 3863, 3862, 4462, 4463, 4488, 4487
3541, 3838, 3839, 3864, 3863, 4463, 4464, 4489, 4488
3542, 3839, 3840, 3865, 3864, 4464, 4465, 4490, 4489
3543, 3840, 3841, 3866, 3865, 4465, 4466, 4491, 4490
3544, 3841, 3842, 3867, 3866, 4466, 4467, 4492, 4491
3545, 3842, 3843, 3868, 3867, 4467, 4468, 4493, 4492
3546, 3843, 3844, 3869, 3868, 4468, 4469, 4494, 4493
3547, 3844, 3845, 3870, 3869, 4469, 4470, 4495, 4494
3548, 3845, 3846, 3871, 3870, 4470, 4471, 4496, 4495
3549, 3846, 3847, 3872, 3871, 4471, 4472, 4497, 4496
3550, 3847, 3848, 3873, 3872, 4472, 4473, 4498, 4497
3551, 3848, 3849, 3874, 3873, 4473, 4474, 4499, 4498
3552, 3849, 3850, 3875, 3874, 4474, 4475, 4500, 4499
3553, 3851, 3852, 3877, 3876, 4476, 4477, 4502, 4501
3554, 3852, 3853, 3878, 3877, 4477, 4478, 4503, 4502
3555, 3853, 3854, 3879, 3878, 4478, 4479, 4504, 4503
3556, 3854, 3855, 3880, 3879, 4479, 4480, 4505, 4504
3557, 3855, 3856, 3881, 3880, 4480, 4481, 4506, 4505
3558, 3856, 3857, 3882, 3881, 4481, 4482, 4507, 4506
3559, 3857, 3858, 3883, 3882, 4482, 4483, 4508, 4507
3560, 3858, 3859, 3884, 3883, 4483, 4484, 4509, 4508
3561, 3859, 3860, 3885, 3884, 4484, 4485, 4510, 4509
3562, 3860, 3861, 3886, 3885, 4485, 4486, 4511, 4510
3563, 3861, 3862, 3887, 3886, 4486, 4487, 4512, 4511
3564, 3862, 3863, 3888, 3887, 4487, 4488, 4513, 4512
3565, 3863, 3864, 3889, 3888, 4488, 4489, 4514, 4513
3566, 3864, 3865, 3890, 3889, 4489, 4490, 4515, 4514
3567, 3865, 3866, 3891, 3890, 4490, 4491, 4516, 4515
3568, 3866, 3867, 3892, 3891, 4491, 4492, 4517, 4516
3569, 3867, 3868, 3893, 3892, 4492, 4493, 4518, 4517
3570, 3868, 3869, 3894, 3893, 4493, 4494, 4519, 4518
3571, 3869, 3870, 3895, 3894, 4494, 4495, 4520, 4519
3572, 3870, 3871, 3896, 3895, 4495, 4496, 4521, 4520
3573, 3871, 3872, 3897, 3896, 4496, 4497, 4522, 4521
3574, 3872, 3873, 3898, 3897, 4497, 4498, 4523, 4522
3575, 3873, 3874, 3899, 3898, 4498, 4499, 4524, 4523
3576, 3874, 3875, 3900, 3899, 4499, 4500, 4525, 4524
3577, 3876, 3877, 3902, 3901, 4501, 4502, 4527, 4526
3578, 3877, 3878, 3903, 3902, 4502, 4503, 4528, 4527
3579, 3878, 3879, 3904, 3903, 4503, 4504, 4529, 4528
3580, 3879, 3880, 3905, 3904, 4504, 4505, 4530, 4529
3581, 3880, 3881, 3906, 3905, 4505, 4506, 4531, 4530
3582, 3881, 3882, 3907, 3906, 4506, 4507, 4532, 4531
3583, 3882, 3883, 3908, 3907, 4507, 4508, 4533, 4532
3584, 3883, 3884, 3909, 3908, 4508, 4509, 4534, 4533
3585, 3884, 3885, 3910, 3909, 4509, 4510, 4535, 4534
3586, 3885, 3886, 3911, 3910, 4510, 4511, 4536, 4535
3587, 3886, 3887, 3912, 3911, 4511, 4512, 4537, 4536
3588, 3887, 3888, 3913, 3912, 4512, 4513, 4538, 4537
3589, 3888, 3889, 3914, 3913, 4513, 4514, 4539, 4538
3590, 3889, 3890, 3915, 3914, 4514, 4515, 4540, 4539
3591, 3890, 3891, 3916, 3915, 4515, 4516, 4541, 4540
3592, 3891, 3892, 3917, 3916, 4516, 4517, 4542, 4541
3593, 3892, 3893, 3918, 3917, 4517, 4518, 4543, 4542
3594, 3893, 3894, 3919, 3918, 4518, 4519, 4544, 4543
3595, 3894, 3895, 3920, 3919, 4519, 4520, 4545, 4544
3596, 3895, 3896, 3921, 3920, 4520, 4521, 4546, 4545
3597, 3896, 3897, 3922, 3921, 4521, 4522, 4547, 4546
3598, 3897, 3898, 3923, 3922, 4522, 4523, 4548, 4547
3599, 3898, 3899, 3924, 3923, 4523, 4524, 4549, 4548
3600, 3899, 3900, 3925, 3924, 4524, 4525, 4550, 4549
3601, 3901, 3902, 3927, 3926, 4526, 4527, 4552, 4551
3602, 3902, 3903, 3928, 3927, 4527, 4528, 4553, 4552
3603, 3903, 3904, 3929, 3928, 4528, 4529, 4554, 4553
3604, 3904, 3905, 3930, 3929, 4529, 4530, 4555, 4554
3605, 3905, 3906, 3931, 3930, 4530, 4531, 4556, 4555
3606, 3906, 3907, 3932, 3931, 4531, 4532, 4557, 4556
3607, 3907, 3908, 3933, 3932, 4532, 4533, 4558, 4557
3608, 3908, 3909, 3934, 3933, 4533, 4534, 4559, 4558
3609, 3909, 3910, 3935, 3934, 4534, 4535, 4560, 4559
3610, 3910, 3911, 3936, 3935, 4535, 4536, 4561, 4560
3611, 3911, 3912, 3937, 3936, 4536, 4537, 4562, 4561
3612, 3912, 3913, 3938, 3937, 4537, 4538, 4563, 4562
3613, 3913, 3914, 3939, 3938, 4538, 4539, 4564, 4563
3614, 3914, 3915, 3940, 3939, 4539, 4540, 4565, 4564
3615, 3915, 3916, 3941, 3940, 4540, 4541, 4566, 4565
3616, 3916, 3917, 3942, 3941, 4541, 4542, 4567, 4566
3617, 3917, 3918, 3943, 3942, 4542, 4543, 4568, 4567
3618, 3918, 3919, 3944, 3943, 4543, 4544, 4569, 4568
3619, 3919, 3920, 3945, 3944, 4544, 4545, 4570, 4569
3620, 3920, 3921, 3946, 3945, 4545, 4546, 4571, 4570
3621, 3921, 3922, 3947, 3946, 4546, 4547, 4572, 4571
3622, 3922, 3923, 3948, 3947, 4547, 4548, 4573, 4572
3623, 3923, 3924, 3949, 3948, 4548, 4549, 4574, 4573
3624, 3924, 3925, 3950, 3949, 4549, 4550, 4575, 4574
3625, 3926, 3927, 3952, 3951, 4551, 4552, 4577, 4576
3626, 3927, 3928, 3953, 3952, 4552, 4553, 4578, 4577
3627, 3928, 3929, 3954, 3953, 4553, 4554, 4579, 4578
3628, 3929, 3930, 3955, 3954, 4554, 4555, 4580, 4579
3629, 3930, 3931, 3956, 3955, 4555, 4556, 4581, 4580
3630, 3931, 3932, 3957, 3956, 4556, 4557, 4582, 4581
3631, 3932, 3933, 3958, 3957, 4557, 4558, 4583, 4582
3632, 3933, 3934, 3959, 3958, 4558, 4559, 4584, 4583
3633, 3934, 3935, 3960, 3959, 4559, 4560, 4585, 4584
3634, 3935, 3936, 3961, 3960, 4560, 4561, 4586, 4585
3635, 3936, 3937, 3962, 3961, 4561, 4562, 4587, 4586
3636, 3937, 3938, 3963, 3962, 4562, 4563, 4588, 4587
3637, 3938, 3939, 3964, 3963, 4563, 4564, 4589, 4588
3638, 3939, 3940, 3965, 3964, 4564, 4565, 4590, 4589
3639, 3940, 3941, 3966, 3965, 4565, 4566, 4591, 4590
3640, 3941, 3942, 3967, 3966, 4566, 4567, 4592, 4591
3641, 3942, 3943, 3968, 3967, 4567, 4568, 4593, 4592
3642, 3943, 3944, 3969, 3968, 4568, 4569, 4594, 4593
3643, 3944, 3945, 3970, 3969, 4569, 4570, 4595, 4594
3644, 3945, 3946, 3971, 3970, 4570, 4571, 4596, 4595
3645, 3946, 3947, 3972, 3971, 4571, 4572, 4597, 4596
3646, 3947, 3948, 3973, 3972, 4572, 4573, 4598, 4597
3647, 3948, 3949, 3974, 3973, 4573, 4574, 4599, 4598
3648, 3949, 3950, 3975, 3974, 4574, 4575, 4600, 4599
3649, 3951, 3952, 3977, 3976, 4576, 4577, 4602, 4601
3650, 3952, 3953, 3978, 3977, 4577, 4578, 4603, 4602
3651, 3953, 3954, 3979, 3978, 4578, 4579, 4604, 4603
3652, 3954, 3955, 3980, 3979, 4579, 4580, 4605, 4604
3653, 3955, 3956, 3981, 3980, 4580, 4581, 4606, 4605
3654, 3956, 3957, 3982, 3981, 4581, 4582, 4607, 4606
3655, 3957, 3958, 3983, 3982, 4582, 4583, 4608, 4607
3656, 3958, 3959, 3984, 3983, 4583, 4584, 4609, 4608
3657, 3959, 3960, 3985, 3984, 4584, 4585, 4610, 4609
3658, 3960, 3961, 3986, 3985, 4585, 4586, 4611, 4610
3659, 3961, 3962, 3987, 3986, 4586, 4587, 4612, 4611
3660, 3962, 3963, 3988, 3987, 4587, 4588, 4613, 4612
3661, 3963, 3964, 3989, 3988, 4588, 4589, 4614, 4613
3662, 3964, 3965, 3990, 3989, 4589, 4590, 4615, 4614
3663, 3965, 3966, 3991, 3990, 4590, 4591, 4616, 4615
3664, 3966, 3967, 3992, 3991, 4591, 4592, 4617, 4616
3665, 3967, 3968, 3993, 3992, 4592, 4593, 4618, 4617
3666, 3968, 3969, 3994, 3993, 4593, 4594, 4619, 4618
3667, 3969, 3970, 3995, 3994, 4594, 4595, 4620, 4619
3668, 3970, 3971, 3996, 3995, 4595, 4596, 4621, 4620
3669, 3971, 3972, 3997, 3996, 4596, 4597, 4622, 4621
3670, 3972, 3973, 3998, 3997, 4597, 4598, 4623, 4622
3671, 3973, 3974, 3999, 3998, 4598, 4599, 4624, 4623
3672, 3974, 3975, 4000, 3999, 4599, 4600, 4625, 4624
3673, 3976, 3977, 4002, 4001, 4601, 4602, 4627, 4626
3674, 3977, 3978, 4003, 4002, 4602, 4603, 4628, 4627
3675, 3978, 3979, 4004, 4003, 4603, 4604, 4629, 4628
3676, 3979, 3980, 4005, 4004, 4604, 4605, 4630, 4629
3677, 3980, 3981, 4006, 4005, 4605, 4606, 4631, 4630
3678, 3981, 3982, 4007, 4006, 4606, 4607, 4632, 4631
3679, 3982, 3983, 4008, 4007, 4607, 4608, 4633, 4632
3680, 3983, 3984, 4009, 4008, 4608, 4609, 4634, 4633
3681, 3984, 3985, 4010, 4009, 4609, 4610, 4635, 4634
3682, 3985, 3986, 4011, 4010, 4610, 4611, 4636, 4635
3683, 3986, 3987, 4012, 4011, 4611, 4612, 4637, 4636
3684, 3987, 3988, 4013, 4012, 4612, 4613, 4638, 4637
3685, 3988, 3989, 4014, 4013, 4613, 4614, 4639, 4638
3686, 3989, 3990, 4015, 4014, 4614, 4615, 4640, 4639
3687, 3990, 3991, 4016, 4015, 4615, 4616, 4641, 4640
3688, 3991, 3992, 4017, 4016, 4616, 4617, 4642, 4641
3689, 3992, 3993, 4018, 4017, 4617, 4618, 4643, 4642
3690, 3993, 3994, 4019, 4018, 4618, 4619, 4644, 4643
3691, 3994, 3995, 4020, 4019, 4619, 4620, 4645, 4644
3692, 3995, 3996, 4021, 4020, 4620, 4621, 4646, 4645
3693, 3996, 3997, 4022, 4021, 4621, 4622, 4647, 4646
3694, 3997, 3998, 4023, 4022, 4622, 4623, 4648, 4647
3695, 3998, 3999, 4024, 4023, 4623, 4624, 4649, 4648
3696, 3999, 4000, 4025, 4024, 4624, 4625, 4650, 4649
3697, 4001, 4002, 4027, 4026, 4626, 4627, 4652, 4651
3698, 4002, 4003, 4028, 4027, 4627, 4628, 4653, 4652
3699, 4003, 4004, 4029, 4028, 4628, 4629, 4654, 4653
3700, 4004, 4005, 4030, 4029, 4629, 4630, 4655, 4654
3701, 4005, 4006, 4031, 4030, 4630, 4631, 4656, 4655
3702, 4006, 4007, 4032, 4031, 4631, 4632, 4657, 4656
3703, 4007, 4008, 4033, 4032, 4632, 4633, 4658, 4657
3704, 4008, 4009, 4034, 4033, 4633, 4634, 4659, 4658
3705, 4009, 4010, 4035, 4034, 4634, 4635, 4660, 4659
3706, 4010, 4011, 4036, 4035, 4635, 4636, 4661, 4660
3707, 4011, 4012, 4037, 4036, 4636, 4637, 4662, 4661
3708, 4012, 4013, 4038, 4037, 4637, 4638, 4663, 4662
3709, 4013, 4014, 4039, 4038, 4638, 4639, 4664, 4663
3710, 4014, 4015, 4040, 4039, 4639, 4640, 4665, 4664
3711, 4015, 4016, 4041, 4040, 4640, 4641, 4666, 4665
3712, 4016, 4017, 4042, 4041, 4641, 4642, 4667, 4666
3713, 4017, 4018, 4043, 4042, 4642, 4643, 4668, 4667
3714, 4018, 4019, 4044, 4043, 4643, 4644, 4669, 4668
3715, 4019, 4020, 4045, 4044, 4644, 4645, 4670, 4669
3716, 4020, 4021, 4046, 4045, 4645, 4646, 4671, 4670
3717, 4021, 4022, 4047, 4046, 4646, 4647, 4672, 4671
3718, 4022, 4023, 4048, 4047, 4647, 4648, 4673, 4672
3719, 4023, 4024, 4049, 4048, 4648, 4649, 4674, 4673
3720, 4024, 4025, 4050, 4049, 4649, 4650, 4675, 4674
3721, 4026, 4027, 4052, 4051, 4651, 4652, 4677, 4676
3722, 4027, 4028, 4053, 4052, 4652, 4653, 4678, 4677
3723, 4028, 4029, 4054, 4053, 4653, 4654, 4679, 4678
3724, 4029, 4030, 4055, 4054, 4654, 4655, 4680, 4679
3725, 4030, 4031, 4056, 4055, 4655, 4656, 4681, 4680
3726, 4031, 4032, 4057, 4056, 4656, 4657, 4682, 4681
3727, 4032, 4033, 4058, 4057, 4657, 4658, 4683, 4682
3728, 4033, 4034, 4059, 4058, 4658, 4659, 4684, 4683
3729, 4034, 4035, 4060, 4059, 4659, 4660, 4685, 4684
3730, 4035, 4036, 4061, 4060, 4660, 4661, 4686, 4685
3731, 4036, 4037, 4062, 4061, 4661, 4662, 4687, 4686
3732, 4037, 4038, 4063, 4062, 4662, 4663, 4688, 4687
3733, 4038, 4039, 4064, 4063, 4663, 4664, 4689, 4688
3734, 4039, 4040, 4065, 4064, 4664, 4665, 4690, 4689
3735, 4040, 4041, 4066, 4065, 4665, 4666, 4691, 4690
3736, 4041, 4042, 4067, 4066, 4666, 4667, 4692, 4691
3737, 4042, 4043, 4068, 4067, 4667, 4668, 4693, 4692
3738, 4043, 4044, 4069, 4068, 4668, 4669, 4694, 4693
3739, 4044, 4045, 4070, 4069, 4669, 4670, 4695, 4694
3740, 4045, 4046, 4071, 4070, 4670, 4671, 4696, 4695
3741, 4046, 4047, 4072, 4071, 4671, 4672, 4697, 4696
3742, 4047, 4048, 4073, 4072, 4672, 4673, 4698, 4697
3743, 4048, 4049, 4074, 4073, 4673, 4674, 4699, 4698
3744, 4049, 4050, 4075, 4074, 4674, 4675, 4700, 4699
3745, 4051, 4052, 4077, 4076, 4676, 4677, 4702, 4701
3746, 4052, 4053, 4078, 4077, 4677, 4678, 4703, 4702
3747, 4053, 4054, 4079, 4078, 4678, 4679, 4704, 4703
3748, 4054, 4055, 4080, 4079, 4679, 4680, 4705, 4704
3749, 4055, 4056, 4081, 4080, 4680, 4681, 4706, 4705
3750, 4056, 4057, 4082, 4081, 4681, 4682, 4707, 4706
3751, 4057, 4058, 4083, 4082, 4682, 4683, 4708, 4707
3752, 4058, 4059, 4084, 4083, 4683, 4684, 4709, 4708
3753, 4059, 4060, 4085, 4084, 4684, 4685, 4710, 4709
3754, 4060, 4061, 4086, 4085, 4685, 4686, 4711, 4710
3755, 4061, 4062, 4087, 4086, 4686, 4687, 4712, 4711
3756, 4062, 4063, 4088, 4087, 4687, 4688, 4713, 4712
3757, 4063, 4064, 4089, 4088, 4688, 4689, 4714, 4713
3758, 4064, 4065, 4090, 4089, 4689, 4690, 4715, 4714
3759, 4065, 4066, 4091, 4090, 4690, 4691, 4716, 4715
3760, 4066, 4067, 4092, 4091, 4691, 4692, 4717, 4716
3761, 4067, 4068, 4093, 4092, 4692, 4693, 4718, 4717
3762, 4068, 4069, 4094, 4093, 4693, 4694, 4719, 4718
3763, 4069, 4070, 4095, 4094, 4694, 4695, 4720, 4719
3764, 4070, 4071, 4096, 4095, 4695, 4696, 4721, 4720
3765, 4071, 4072, 4097, 4096, 4696, 4697, 4722, 4721
3766, 4072, 4073, 4098, 4097, 4697, 4698, 4723, 4722
3767, 4073, 4074, 4099, 4098, 4698, 4699, 4724, 4723
3768, 4074, 4075, 4100, 4099, 4699, 4700, 4725, 4724
3769, 4076, 4077, 4102, 4101, 4701, 4702, 4727, 4726
3770, 4077, 4078, 4103, 4102, 4702, 4703, 4728, 4727
3771, 4078, 4079, 4104, 4103, 4703, 4704, 4729, 4728
3772, 4079, 4080, 4105, 4104, 4704, 4705, 4730, 4729
3773, 4080, 4081, 4106, 4105, 4705, 4706, 4731, 4730
3774, 4081, 4082, 4107, 4106, 4706, 4707, 4732, 4731
3775, 4082, 4083, 4108, 4107, 4707, 4708, 4733, 4732
3776, 4083, 4084, 4109, 4108, 4708, 4709, 4734, 4733
3777, 4084, 4085, 4110, 4109, 4709, 4710, 4735, 4734
3778, 4085, 4086, 4111, 4110, 4710, 4711, 4736, 4735
3779, 4086, 4087, 4112, 4111, 4711, 4712, 4737, 4736
3780, 4087, 4088, 4113, 4112, 4712, 4713, 4738, 4737
3781, 4088, 4089, 4114, 4113, 4713, 4714, 4739, 4738
3782, 4089, 4090, 4115, 4114, 4714, 4715, 4740, 4739
3783, 4090, 4091, 4116, 4115, 4715, 4716, 4741, 4740
3784, 4091, 4092, 4117, 4116, 4716, 4717, 4742, 4741
3785, 4092, 4093, 4118, 4117, 4717, 4718, 4743, 4742
3786, 4093, 4094, 4119, 4118, 4718, 4719, 4744, 4743
3787, 4094, 4095, 4120, 4119, 4719, 4720, 4745, 4744
3788, 4095, 4096, 4121, 4120, 4720, 4721, 4746, 4745
3789, 4096, 4097, 4122, 4121, 4721, 4722, 4747, 4746
3790, 4097, 4098, 4123, 4122, 4722, 4723, 4748, 4747
3791, 4098, 4099, 4124, 4123, 4723, 4724, 4749, 4748
3792, 4099, 4100, 4125, 4124, 4724, 4725, 4750, 4749
3793, 4101, 4102, 4127, 4126, 4726, 4727, 4752, 4751
3794, 4102, 4103, 4128, 4127, 4727, 4728, 4753, 4752
3795, 4103, 4104, 4129, 4128, 4728, 4729, 4754, 4753
3796, 4104, 4105, 4130, 4129, 4729, 4730, 4755, 4754
3797, 4105, 4106, 4131, 4130, 4730, 4731, 4756, 4755
3798, 4106, 4107, 4132, 4131, 4731, 4732, 4757, 4756
3799, 4107, 4108, 4133, 4132, 4732, 4733, 4758, 4757
3800, 4108, 4109, 4134, 4133, 4733, 4734, 4759, 4758
3801, 4109, 4110, 4135, 4134, 4734, 4735, 4760, 4759
3802, 4110, 4111, 4136, 4135, 4735, 4736, 4761, 4760
3803, 4111, 4112, 4137, 4136, 4736, 4737, 4762, 4761
3804, 4112, 4113, 4138, 4137, 4737, 4738, 4763, 4762
3805, 4113, 4114, 4139, 4138, 4738, 4739, 4764, 4763
3806, 4114, 4115, 4140, 4139, 4739, 4740, 4765, 4764
3807, 4115, 4116, 4141, 4140, 4740, 4741, 4766, 4765
3808, 4116, 4117, 4142, 4141, 4741, 4742, 4767, 4766
3809, 4117, 4118, 4143, 4142, 4742, 4743, 4768, 4767
3810, 4118, 4119, 4144, 4143, 4743, 4744, 4769, 4768
3811, 4119, 4120, 4145, 4144, 4744, 4745, 4770, 4769
3812, 4120, 4121, 4146, 4145, 4745, 4746, 4771, 4770
3813, 4121, 4122, 4147, 4146, 4746, 4747, 4772, 4771
3814, 4122, 4123, 4148, 4147, 4747, 4748, 4773, 4772
3815, 4123, 4124, 4149, 4148, 4748, 4749, 4774, 4773
3816, 4124, 4125, 4150, 4149, 4749, 4750, 4775, 4774
3817, 4126, 4127, 4152, 4151, 4751, 4752, 4777, 4776
3818, 4127, 4128, 4153, 4152, 4752, 4753, 4778, 4777
3819, 4128, 4129, 4154, 4153, 4753, 4754, 4779, 4778
3820, 4129, 4130, 4155, 4154, 4754, 4755, 4780, 4779
3821, 4130, 4131, 4156, 4155, 4755, 4756, 4781, 4780
3822, 4131, 4132, 4157, 4156, 4756, 4757, 4782, 4781
3823, 4132, 4133, 4158, 4157, 4757, 4758, 4783, 4782
3824, 4133, 4134, 4159, 4158, 4758, 4759, 4784, 4783
3825, 4134, 4135, 4160, 4159, 4759, 4760, 4785, 4784
3826, 4135, 4136, 4161, 4160, 4760, 4761, 4786, 4785
3827, 4136, 4137, 4162, 4161, 4761, 4762, 4787, 4786
3828, 4137, 4138, 4163, 4162, 4762, 4763, 4788, 4787
3829, 4138, 4139, 4164, 4163, 4763, 4764, 4789, 4788
3830, 4139, 4140, 4165, 4164, 4764, 4765, 4790, 4789
3831, 4140, 4141, 4166, 4165, 4765, 4766, 4791, 4790
3832, 4141, 4142, 4167, 4166, 4766, 4767, 4792, 4791
3833, 4142, 4143, 4168, 4167, 4767, 4768, 4793, 4792
3834, 4143, 4144, 4169, 4168, 4768, 4769, 4794, 4793
3835, 4144, 4145, 4170, 4169, 4769, 4770, 4795, 4794
3836, 4145, 4146, 4171, 4170, 4770, 4771, 4796, 4795
3837, 4146, 4147, 4172, 4171, 4771, 4772, 4797, 4796
3838, 4147, 4148, 4173, 4172, 4772, 4773, 4798, 4797
3839, 4148, 4149, 4174, 4173, 4773, 4774, 4799, 4798
3840, 4149, 4150, 4175, 4174, 4774, 4775, 4800, 4799
3841, 4151, 4152, 4177, 4176, 4776, 4777, 4802, 4801
3842, 4152, 4153, 4178, 4177, 4777, 4778, 4803, 4802
3843, 4153, 4154, 4179, 4178, 4778, 4779, 4804, 4803
3844, 4154, 4155, 4180, 4179, 4779, 4780, 4805, 4804
3845, 4155, 4156, 4181, 4180, 4780, 4781, 4806, 4805
3846, 4156, 4157, 4182, 4181, 4781, 4782, 4807, 4806
3847, 4157, 4158, 4183, 4182, 4782, 4783, 4808, 4807
3848, 4158, 4159, 4184, 4183, 4783, 4784, 4809, 4808
3849, 4159, 4160, 4185, 4184, 4784, 4785, 4810, 4809
3850, 4160, 4161, 4186, 4185, 4785, 4786, 4811, 4810
3851, 4161, 4162, 4187, 4186, 4786, 4787, 4812, 4811
3852, 4162, 4163, 4188, 4187, 4787, 4788, 4813, 4812
3853, 4163, 4164, 4189, 4188, 4788, 4789, 4814, 4813
3854, 4164, 4165, 4190, 4189, 4789, 4790, 4815, 4814
3855, 4165, 4166, 4191, 4190, 4790, 4791, 4816, 4815
3856, 4166, 4167, 4192, 4191, 4791, 4792, 4817, 4816
3857, 4167, 4168, 4193, 4192, 4792, 4793, 4818, 4817
3858, 4168, 4169, 4194, 4193, 4793, 4794, 4819, 4818
3859, 4169, 4170, 4195, 4194, 4794, 4795, 4820, 4819
3860, 4170, 4171, 4196, 4195, 4795, 4796, 4821, 4820
3861, 4171, 4172, 4197, 4196, 4796, 4797, 4822, 4821
3862, 4172, 4173, 4198, 4197, 4797, 4798, 4823, 4822
3863, 4173, 4174, 4199, 4198, 4798, 4799, 4824, 4823
3864, 4174, 4175, 4200, 4199, 4799, 4800, 4825, 4824
3865, 4176, 4177, 4202, 4201, 4801, 4802, 4827, 4826
3866, 4177, 4178, 4203, 4202, 4802, 4803, 4828, 4827
3867, 4178, 4179, 4204, 4203, 4803, 4804, 4829, 4828
3868, 4179, 4180, 4205, 4204, 4804, 4805, 4830, 4829
3869, 4180, 4181, 4206, 4205, 4805, 4806, 4831, 4830
3870, 4181, 4182, 4207, 4206, 4806, 4807, 4832, 4831
3871, 4182, 4183, 4208, 4207, 4807, 4808, 4833, 4832
3872, 4183, 4184, 4209, 4208, 4808, 4809, 4834, 4833
3873, 4184, 4185, 4210, 4209, 4809, 4810, 4835, 4834
3874, 4185, 4186, 4211, 4210, 4810, 4811, 4836, 4835
3875, 4186, 4187, 4212, 4211, 4811, 4812, 4837, 4836
3876, 4187, 4188, 4213, 4212, 4812, 4813, 4838, 4837
3877, 4188, 4189, 4214, 4213, 4813, 4814, 4839, 4838
3878, 4189, 4190, 4215, 4214, 4814, 4815, 4840, 4839
3879, 4190, 4191, 4216, 4215, 4815, 4816, 4841, 4840
3880, 4191, 4192, 4217, 4216, 4816, 4817, 4842, 4841
3881, 4192, 4193, 4218, 4217, 4817, 4818, 4843, 4842
3882, 4193, 4194, 4219, 4218, 4818, 4819, 4844, 4843
3883, 4194, 4195, 4220, 4219, 4819, 4820, 4845, 4844
3884, 4195, 4196, 4221, 4220, 4820, 4821, 4846, 4845
3885, 4196, 4197, 4222, 4221, 4821, 4822, 4847, 4846
3886, 4197, 4198, 4223, 4222, 4822, 4823, 4848, 4847
3887, 4198, 4199, 4224, 4223, 4823, 4824, 4849, 4848
3888, 4199, 4200, 4225, 4224, 4824, 4825, 4850, 4849
3889, 4201, 4202, 4227, 4226, 4826, 4827, 4852, 4851
3890, 4202, 4203, 4228, 4227, 4827, 4828, 4853, 4852
3891, 4203, 4204, 4229, 4228, 4828, 4829, 4854, 4853
3892, 4204, 4205, 4230, 4229, 4829, 4830, 4855, 4854
3893, 4205, 4206, 4231, 4230, 4830, 4831, 4856, 4855
3894, 4206, 4207, 4232, 4231, 4831, 4832, 4857, 4856
3895, 4207, 4208, 4233, 4232, 4832, 4833, 4858, 4857
3896, 4208, 4209, 4234, 4233, 4833, 4834, 4859, 4858
3897, 4209, 4210, 4235, 4234, 4834, 4835, 4860, 4859
3898, 4210, 4211, 4236, 4235, 4835, 4836, 4861, 4860
3899, 4211, 4212, 4237, 4236, 4836, 4837, 4862, 4861
3900, 4212, 4213, 4238, 4237, 4837, 4838, 4863, 4862
3901, 4213, 4214, 4239, 4238, 4838, 4839, 4864, 4863
3902, 4214, 4215, 4240, 4239, 4839, 4840, 4865, 4864
3903, 4215, 4216, 4241, 4240, 4840, 4841, 4866, 4865
3904, 4216, 4217, 4242, 4241, 4841, 4842, 4867, 4866
3905, 4217, 4218, 4243, 4242, 4842, 4843, 4868, 4867
3906, 4218, 4219, 4244, 4243, 4843, 4844, 4869, 4868
3907, 4219, 4220, 4245, 4244, 4844, 4845, 4870, 4869
3908, 4220, 4221, 4246, 4245, 4845, 4846, 4871, 4870
3909, 4221, 4222, 4247, 4246, 4846, 4847, 4872, 4871
3910, 4222, 4223, 4248, 4247, 4847, 4848, 4873, 4872
3911, 4223, 4224, 4249, 4248, 4848, 4849, 4874, 4873
3912, 4224, 4225, 4250, 4249, 4849, 4850, 4875, 4874
3913, 4226, 4227, 4252, 4251, 4851, 4852, 4877, 4876
3914, 4227, 4228, 4253, 4252, 4852, 4853, 4878, 4877
3915, 4228, 4229, 4254, 4253, 4853, 4854, 4879, 4878
3916, 4229, 4230, 4255, 4254, 4854, 4855, 4880, 4879
3917, 4230, 4231, 4256, 4255, 4855, 4856, 4881, 4880
3918, 4231, 4232, 4257, 4256, 4856, 4857, 4882, 4881
3919, 4232, 4233, 4258, 4257, 4857, 4858, 4883, 4882
3920, 4233, 4234, 4259, 4258, 4858, 4859, 4884, 4883
3921, 4234, 4235, 4260, 4259, 4859, 4860, 4885, 4884
3922, 4235, 4236, 4261, 4260, 4860, 4861, 4886, 4885
3923, 4236, 4237, 4262, 4261, 4861, 4862, 4887, 4886
3924, 4237, 4238, 4263, 4262, 4862, 4863, 4888, 4887
3925, 4238, 4239, 4264, 4263, 4863, 4864, 4889, 4888
3926, 4239, 4240, 4265, 4264, 4864, 4865, 4890, 4889
3927, 4240, 4241, 4266, 4265, 4865, 4866, 4891, 4890
3928, 4241, 4242, 4267, 4266, 4866, 4867, 4892, 4891
3929, 4242, 4243, 4268, 4267, 4867, 4868, 4893, 4892
3930, 4243, 4244, 4269, 4268, 4868, 4869, 4894, 4893
3931, 4244, 4245, 4270, 4269, 4869, 4870, 4895, 4894
3932, 4245, 4246, 4271, 4270, 4870, 4871, 4896, 4895
3933, 4246, 4247, 4272, 4271, 4871, 4872, 4897, 4896
3934, 4247, 4248, 4273, 4272, 4872, 4873, 4898, 4897
3935, 4248, 4249, 4274, 4273, 4873, 4874, 4899, 4898
3936, 4249, 4250, 4275, 4274, 4874, 4875, 4900, 4899
3937, 4251, 4252, 4277, 4276, 4876, 4877, 4902, 4901
3938, 4252, 4253, 4278, 4277, 4877, 4878, 4903, 4902
3939, 4253, 4254, 4279, 4278, 4878, 4879, 4904, 4903
3940, 4254, 4255, 4280, 4279, 4879, 4880, 4905, 4904
3941, 4255, 4256, 4281, 4280, 4880, 4881, 4906, 4905
3942, 4256, 4257, 4282, 4281, 4881, 4882, 4907, 4906
3943, 4257, 4258, 4283, 4282, 4882, 4883, 4908, 4907
3944, 4258, 4259, 4284, 4283, 4883, 4884, 4909, 4908
3945, 4259, 4260, 4285, 4284, 4884, 4885, 4910, 4909
3946, 4260, 4261, 4286, 4285, 4885, 4886, 4911, 4910
3947, 4261, 4262, 4287, 4286, 4886, 4887, 4912, 4911
3948, 4262, 4263, 4288, 4287, 4887, 4888, 4913, 4912
3949, 4263, 4264, 4289, 4288, 4888, 4889, 4914, 4913
3950, 4264, 4265, 4290, 4289, 4889, 4890, 4915, 4914
3951, 4265, 4266, 4291, 4290, 4890, 4891, 4916, 4915
3952, 4266, 4267, 4292, 4291, 4891, 4892, 4917, 4916
3953, 4267, 4268, 4293, 4292, 4892, 4893, 4918, 4917
3954, 4268, 4269, 4294, 4293, 4893, 4894, 4919, 4918
3955, 4269, 4270, 4295, 4294, 4894, 4895, 4920, 4919
3956, 4270, 4271, 4296, 4295, 4895, 4896, 4921, 4920
3957, 4271, 4272, 4297, 4296, 4896, 4897, 4922, 4921
3958, 4272, 4273, 4298, 4297, 4897, 4898, 4923, 4922
3959, 4273, 4274, 4299, 4298, 4898, 4899, 4924, 4923
3960, 4274, 4275, 4300, 4299, 4899, 4900, 4925, 4924
3961, 4276, 4277, 4302, 4301, 4901, 4902, 4927, 4926
3962, 4277, 4278, 4303, 4302, 4902, 4903, 4928, 4927
3963, 4278, 4279, 4304, 4303, 4903, 4904, 4929, 4928
3964, 4279, 4280, 4305, 4304, 4904, 4905, 4930, 4929
3965, 4280, 4281, 4306, 4305, 4905, 4906, 4931, 4930
3966, 4281, 4282, 4307, 4306, 4906, 4907, 4932, 4931
3967, 4282, 4283, 4308, 4307, 4907, 4908, 4933, 4932
3968, 4283, 4284, 4309, 4308, 4908, 4909, 4934, 4933
3969, 4284, 4285, 4310, 4309, 4909, 4910, 4935, 4934
3970, 4285, 4286, 4311, 4310, 4910, 4911, 4936, 4935
3971, 4286, 4287, 4312, 4311, 4911, 4912, 4937, 4936
3972, 4287, 4288, 4313, 4312, 4912, 4913, 4938, 4937
3973, 4288, 4289, 4314, 4313, 4913, 4914, 4939, 4938
3974, 4289, 4290, 4315, 4314, 4914, 4915, 4940, 4939
3975, 4290, 4291, 4316, 4315, 4915, 4916, 4941, 4940
3976, 4291, 4292, 4317, 4316, 4916, 4917, 4942, 4941
3977, 4292, 4293, 4318, 4317, 4917, 4918, 4943, 4942
3978, 4293, 4294, 4319, 4318, 4918, 4919, 4944, 4943
3979, 4294, 4295, 4320, 4319, 4919, 4920, 4945, 4944
3980, 4295, 4296, 4321, 4320, 4920, 4921, 4946, 4945
3981, 4296, 4297, 4322, 4321, 4921, 4922, 4947, 4946
3982, 4297, 4298, 4323, 4322, 4922, 4923, 4948, 4947
3983, 4298, 4299, 4324, 4323, 4923, 4924, 4949, 4948
3984, 4299, 4300, 4325, 4324, 4924, 4925, 4950, 4949
3985, 4301, 4302, 4327, 4326, 4926, 4927, 4952, 4951
3986, 4302, 4303, 4328, 4327, 4927, 4928, 4953, 4952
3987, 4303, 4304, 4329, 4328, 4928, 4929, 4954, 4953
3988, 4304, 4305, 4330, 4329, 4929, 4930, 4955, 4954
3989, 4305, 4306, 4331, 4330, 4930, 4931, 4956, 4955
3990, 4306, 4307, 4332, 4331, 4931, 4932, 4957, 4956
3991, 4307, 4308, 4333, 4332, 4932, 4933, 4958, 4957
3992, 4308, 4309, 4334, 4333, 4933, 4934, 4959, 4958
3993, 4309, 4310, 4335, 4334, 4934, 4935, 4960, 4959
3994, 4310, 4311, 4336, 4335, 4935, 4936, 4961, 4960
3995, 4311, 4312, 4337, 4336, 4936, 4937, 4962, 4961
3996, 4312, 4313, 4338, 4337, 4937, 4938, 4963, 4962
3997, 4313, 4314, 4339, 4338, 4938, 4939, 4964, 4963
3998, 4314, 4315, 4340, 4339, 4939, 4940, 4965, 4964
3999, 4315, 4316, 4341, 4340, 4940, 4941, 4966, 4965
4000, 4316, 4317, 4342, 4341, 4941, 4942, 4967, 4966
4001, 4317, 4318, 4343, 4342, 4942, 4943, 4968, 4967
4002, 4318, 4319, 4344, 4343, 4943, 4944, 4969, 4968
4003, 4319, 4320, 4345, 4344, 4944, 4945, 4970, 4969
4004, 4320, 4321, 4346, 4345, 4945, 4946, 4971, 4970
4005, 4321, 4322, 4347, 4346, 4946, 4947, 4972, 4971
4006, 4322, 4323, 4348, 4347, 4947, 4948, 4973, 4972
4007, 4323, 4324, 4349, 4348, 4948, 4949, 4974, 4973
4008, 4324, 4325, 4350, 4349, 4949, 4950, 4975, 4974
4009, 4326, 4327, 4352, 4351, 4951, 4952, 4977, 4976
4010, 4327, 4328, 4353, 4352, 4952, 4953, 4978, 4977
4011, 4328, 4329, 4354, 4353, 4953, 4954, 4979, 4978
4012, 4329, 4330, 4355, 4354, 4954, 4955, 4980, 4979
4013, 4330, 4331, 4356, 4355, 4955, 4956, 4981, 4980
4014, 4331, 4332, 4357, 4356, 4956, 4957, 4982, 4981
4015, 4332, 4333, 4358, 4357, 4957, 4958, 4983, 4982
4016, 4333, 4334, 4359, 4358, 4958, 4959, 4984, 4983
4017, 4334, 4335, 4360, 4359, 4959, 4960, 4985, 4984
4018, 4335, 4336, 4361, 4360, 4960, 4961, 4986, 4985
4019, 4336, 4337, 4362, 4361, 4961, 4962, 4987, 4986
4020, 4337, 4338, 4363, 4362, 4962, 4963, 4988, 4987
4021, 4338, 4339, 4364, 4363, 4963, 4964, 4989, 4988
4022, 4339, 4340, 4365, 4364, 4964, 4965, 4990, 4989
4023, 4340, 4341, 4366, 4365, 4965, 4966, 4991, 4990
4024, 4341, 4342, 4367, 4366, 4966, 4967, 4992, 4991
4025, 4342, 4343, 4368, 4367, 4967, 4968, 4993, 4992
4026, 4343, 4344, 4369, 4368, 4968, 4969, 4994, 4993
4027, 4344, 4345, 4370, 4369, 4969, 4970, 4995, 4994
4028, 4345, 4346, 4371, 4370, 4970, 4971, 4996, 4995
4029, 4346, 4347, 4372, 4371, 4971, 4972, 4997, 4996
4030, 4347, 4348, 4373, 4372, 4972, 4973, 4998, 4997
4031, 4348, 4349, 4374, 4373, 4973, 4974, 4999, 4998
4032, 4349, 4350, 4375, 4374, 4974, 4975, 5000, 4999
4033, 4376, 4377, 4402, 4401, 5001, 5002, 5027, 5026
4034, 4377, 4378, 4403, 4402, 5002, 5003, 5028, 5027
4035, 4378, 4379, 4404, 4403, 5003, 5004, 5029, 5028
4036, 4379, 4380, 4405, 4404, 5004, 5005, 5030, 5029
4037, 4380, 4381, 4406, 4405, 5005, 5006, 5031, 5030
4038, 4381, 4382, 4407, 4406, 5006, 5007, 5032, 5031
4039, 4382, 4383, 4408, 4407, 5007, 5008, 5033, 5032
4040, 4383, 4384, 4409, 4408, 5008, 5009, 5034, 5033
4041, 4384, 4385, 4410, 4409, 5009, 5010, 5035, 5034
4042, 4385, 4386, 4411, 4410, 5010, 5011, 5036, 5035
4043, 4386, 4387, 4412, 4411, 5011, 5012, 5037, 5036
4044, 4387, 4388, 4413, 4412, 5012, 5013, 5038, 5037
4045, 4388, 4389, 4414, 4413, 5013, 5014, 5039, 5038
4046, 4389, 4390, 4415, 4414, 5014, 5015, 5040, 5039
4047, 4390, 4391, 4416, 4415, 5015, 5016, 5041, 5040
4048, 4391, 4392, 4417, 4416, 5016, 5017, 5042, 5041
4049, 4392, 4393, 4418, 4417, 5017, 5018, 5043, 5042
4050, 4393, 4394, 4419, 4418, 5018, 5019, 5044, 5043
4051, 4394, 4395, 4420, 4419, 5019, 5020, 5045, 5044
4052, 4395, 4396, 4421, 4420, 5020, 5021, 5046, 5045
4053, 4396, 4397, 4422, 4421, 5021, 5022, 5047, 5046
4054, 4397, 4398, 4423, 4422, 5022, 5023, 5048, 5047
4055, 4398, 4399, 4424, 4423, 5023, 5024, 5049, 5048
4056, 4399, 4400, 4425, 4424, 5024, 5025, 5050, 5049
4057, 4401, 4402, 4427, 4426, 5026, 5027, 5052, 5051
4058, 4402, 4403, 4428, 4427, 5027, 5028, 5053, 5052
4059, 4403, 4404, 4429, 4428, 5028, 5029, 5054, 5053
4060, 4404, 4405, 4430, 4429, 5029, 5030, 5055, 5054
4061, 4405, 4406, 4431, 4430, 5030, 5031, 5056, 5055
4062, 4406, 4407, 4432, 4431, 5031, 5032, 5057, 5056
4063, 4407, 4408, 4433, 4432, 5032, 5033, 5058, 5057
4064, 4408, 4409, 4434, 4433, 5033, 5034, 5059, 5058
4065, 4409, 4410, 4435, 4434, 5034, 5035, 5060, 5059
4066, 4410, 4411, 4436, 4435, 5035, 5036, 5061, 5060
4067, 4411, 4412, 4437, 4436, 5036, 5037, 5062, 5061
4068, 4412, 4413, 4438, 4437, 5037, 5038, 5063, 5062
4069, 4413, 4414, 4439, 4438, 5038, 5039, 5064, 5063
4070, 4414, 4415, 4440, 4439, 5039, 5040, 5065, 5064
4071, 4415, 4416, 4441, 4440, 5040, 5041, 5066, 5065
4072, 4416, 4417, 4442, 4441, 5041, 5042, 5067, 5066
4073, 4417, 4418, 4443, 4442, 5042, 5043, 5068, 5067
4074, 4418, 4419, 4444, 4443, 5043, 5044, 5069, 5068
4075, 4419, 4420, 4445, 4444, 5044, 5045, 5070, 5069
4076, 4420, 4421, 4446, 4445, 5045, 5046, 5071, 5070
4077, 4421, 4422, 4447, 4446, 5046, 5047, 5072, 5071
4078, 4422, 4423, 4448, 4447, 5047, 5048, 5073, 5072
4079, 4423, 4424, 4449, 4448, 5048, 5049, 5074, 5073
4080, 4424, 4425, 4450, 4449, 5049, 5050, 5075, 5074
4081, 4426, 4427, 4452, 4451, 5051, 5052, 5077, 5076
4082, 4427, 4428, 4453, 4452, 5052, 5053, 5078, 5077
4083, 4428, 4429, 4454, 4453, 5053, 5054, 5079, 5078
4084, 4429, 4430, 4455, 4454, 5054, 5055, 5080, 5079
4085, 4430, 4431, 4456, 4455, 5055, 5056, 5081, 5080
4086, 4431, 4432, 4457, 4456, 5056, 5057, 5082, 5081
4087, 4432, 4433, 4458, 4457, 5057, 5058, 5083, 5082
4088, 4433, 4434, 4459, 4458, 5058, 5059, 5084, 5083
4089, 4434, 4435, 4460, 4459, 5059, 5060, 5085, 5084
4090, 4435, 4436, 4461, 4460, 5060, 5061, 5086, 5085
4091, 4436, 4437, 4462, 4461, 5061, 5062, 5087, 5086
4092, 4437, 4438, 4463, 4462, 5062, 5063, 5088, 5087
4093, 4438, 4439, 4464, 4463, 5063, 5064, 5089, 5088
4094, 4439, 4440, 4465, 4464, 5064, 5065, 5090, 5089
4095, 4440, 4441, 4466, 4465, 5065, 5066, 5091, 5090
4096, 4441, 4442, 4467, 4466, 5066, 5067, 5092, 5091
4097, 4442, 4443, 4468, 4467, 5067, 5068, 5093, 5092
4098, 4443, 4444, 4469, 4468, 5068, 5069, 5094, 5093
4099, 4444, 4445, 4470, 4469, 5069, 5070, 5095, 5094
4100, 4445, 4446, 4471, 4470, 5070, 5071, 5096, 5095
4101, 4446, 4447, 4472, 4471, 5071, 5072, 5097, 5096
4102, 4447, 4448, 4473, 4472, 5072, 5073, 5098, 5097
4103, 4448, 4449, 4474, 4473, 5073, 5074, 5099, 5098
4104, 4449, 4450, 4475, 4474, 5074, 5075, 5100, 5099
4105, 4451, 4452, 4477, 4476, 5076, 5077, 5102, 5101
4106, 4452, 4453, 4478, 4477, 5077, 5078, 5103, 5102
4107, 4453, 4454, 4479, 4478, 5078, 5079, 5104, 5103
4108, 4454, 4455, 4480, 4479, 5079, 5080, 5105, 5104
4109, 4455, 4456, 4481, 4480, 5080, 5081, 5106, 5105
4110, 4456, 4457, 4482, 4481, 5081, 5082, 5107, 5106
4111, 4457, 4458, 4483, 4482, 5082, 5083, 5108, 5107
4112, 4458, 4459, 4484, 4483, 5083, 5084, 5109, 5108
4113, 4459, 4460, 4485, 4484, 5084, 5085, 5110, 5109
4114, 4460, 4461, 4486, 4485, 5085, 5086, 5111, 5110
4115, 4461, 4462, 4487, 4486, 5086, 5087, 5112, 5111
4116, 4462, 4463, 4488, 4487, 5087, 5088, 5113, 5112
4117, 4463, 4464, 4489, 4488, 5088, 5089, 5114, 5113
4118, 4464, 4465, 4490, 4489, 5089, 5090, 5115, 5114
4119, 4465, 4466, 4491, 4490, 5090, 5091, 5116, 5115
4120, 4466, 4467, 4492, 4491, 5091, 5092, 5117, 5116
4121, 4467, 4468, 4493, 4492, 5092, 5093, 5118, 5117
4122, 4468, 4469, 4494, 4493, 5093, 5094, 5119, 5118
4123, 4469, 4470, 4495, 4494, 5094, 5095, 5120, 5119
4124, 4470, 4471, 4496, 4495, 5095, 5096, 5121, 5120
4125, 4471, 4472, 4497, 4496, 5096, 5097, 5122, 5121
4126, 4472, 4473, 4498, 4497, 5097, 5098, 5123, 5122
4127, 4473, 4474, 4499, 4498, 5098, 5099, 5124, 5123
4128, 4474, 4475, 4500, 4499, 5099, 5100, 5125, 5124
4129, 4476, 4477, 4502, 4501, 5101, 5102, 5127, 5126
4130, 4477, 4478, 4503, 4502, 5102, 5103, 5128, 5127
4131, 4478, 4479, 4504, 4503, 5103, 5104, 5129, 5128
4132, 4479, 4480, 4505, 4504, 5104, 5105, 5130, 5129
4133, 4480, 4481, 4506, 4505, 5105, 5106, 5131, 5130
4134, 4481, 4482, 4507, 4506, 5106, 5107, 5132, 5131
4135, 4482, 4483, 4508, 4507, 5107, 5108, 5133, 5132
4136, 4483, 4484, 4509, 4508, 5108, 5109, 5134, 5133
4137, 4484, 4485, 4510, 4509, 5109, 5110, 5135, 5134
4138, 4485, 4486, 4511, 4510, 5110, 5111, 5136, 5135
4139, 4486, 4487, 4512, 4511, 5111, 5112, 5137, 5136
4140, 4487, 4488, 4513, 4512, 5112, 5113, 5138, 5137
4141, 4488, 4489, 4514, 4513, 5113, 5114, 5139, 5138
4142, 4489, 4490, 4515, 4514, 5114, 5115, 5140, 5139
4143, 4490, 4491, 4516, 4515, 5115, 5116, 5141, 5140
4144, 4491, 4492, 4517, 4516, 5116, 5117, 5142, 5141
4145, 4492, 4493, 4518, 4517, 5117, 5118, 5143, 5142
4146, 4493, 4494, 4519, 4518, 5118, 5119, 5144, 5143
4147, 4494, 4495, 4520, 4519, 5119, 5120, 5145, 5144
4148, 4495, 4496, 4521, 4520, 5120, 5121, 5146, 5145
4149, 4496, 4497, 4522, 4521, 5121, 5122, 5147, 5146
4150, 4497, 4498, 4523, 4522, 5122, 5123, 5148, 5147
4151, 4498, 4499, 4524, 4523, 5123, 5124, 5149, 5148
4152, 4499, 4500, 4525, 4524, 5124, 5125, 5150, 5149
4153, 4501, 4502, 4527, 4526, 5126, 5127, 5152, 5151
4154, 4502, 4503, 4528, 4527, 5127, 5128, 5153, 5152
4155, 4503, 4504, 4529, 4528, 5128, 5129, 5154, 5153
4156, 4504, 4505, 4530, 4529, 5129, 5130, 5155, 5154
4157, 4505, 4506, 4531, 4530, 5130, 5131, 5156, 5155
4158, 4506, 4507, 4532, 4531, 5131, 5132, 5157, 5156
4159, 4507, 4508, 4533, 4532, 5132, 5133, 5158, 5157
4160, 4508, 4509, 4534, 4533, 5133, 5134, 5159, 5158
4161, 4509, 4510, 4535, 4534, 5134, 5135, 5160, 5159
4162, 4510, 4511, 4536, 4535, 5135, 5136, 5161, 5160
4163, 4511, 4512, 4537, 4536, 5136, 5137, 5162, 5161
4164, 4512, 4513, 4538, 4537, 5137, 5138, 5163, 5162
4165, 4513, 4514, 4539, 4538, 5138, 5139, 5164, 5163
4166, 4514, 4515, 4540, 4539, 5139, 5140, 5165, 5164
4167, 4515, 4516, 4541, 4540, 5140, 5141, 5166, 5165
4168, 4516, 4517, 4542, 4541, 5141, 5142, 5167, 5166
4169, 4517, 4518, 4543, 4542, 5142, 5143, 5168, 5167
4170, 4518, 4519, 4544, 4543, 5143, 5144, 5169, 5168
4171, 4519, 4520, 4545, 4544, 5144, 5145, 5170, 5169
4172, 4520, 4521, 4546, 4545, 5145, 5146, 5171, 5170
4173, 4521, 4522, 4547, 4546, 5146, 5147, 5172, 5171
4174, 4522, 4523, 4548, 4547, 5147, 5148, 5173, 5172
4175, 4523, 4524, 4549, 4548, 5148, 5149, 5174, 5173
4176, 4524, 4525, 4550, 4549, 5149, 5150, 5175, 5174
4177, 4526, 4527, 4552, 4551, 5151, 5152, 5177, 5176
4178, 4527, 4528, 4553, 4552, 5152, 5153, 5178, 5177
4179, 4528, 4529, 4554, 4553, 5153, 5154, 5179, 5178
4180, 4529, 4530, 4555, 4554, 5154, 5155, 5180, 5179
4181, 4530, 4531, 4556, 4555, 5155, 5156, 5181, 5180
4182, 4531, 4532, 4557, 4556, 5156, 5157, 5182, 5181
4183, 4532, 4533, 4558, 4557, 5157, 5158, 5183, 5182
4184, 4533, 4534, 4559, 4558, 5158, 5159, 5184, 5183
4185, 4534, 4535, 4560, 4559, 5159, 5160, 5185, 5184
4186, 4535, 4536, 4561, 4560, 5160, 5161, 5186, 5185
4187, 4536, 4537, 4562, 4561, 5161, 5162, 5187, 5186
4188, 4537, 4538, 4563, 4562, 5162, 5163, 5188, 5187
4189, 4538, 4539, 4564, 4563, 5163, 5164, 5189, 5188
4190, 4539, 4540, 4565, 4564, 5164, 5165, 5190, 5189
4191, 4540, 4541, 4566, 4565, 5165, 5166, 5191, 5190
4192, 4541, 4542, 4567, 4566, 5166, 5167, 5192, 5191
4193, 4542, 4543, 4568, 4567, 5167, 5168, 5193, 5192
4194, 4543, 4544, 4569, 4568, 5168, 5169, 5194, 5193
4195, 4544, 4545, 4570, 4569, 5169, 5170, 5195, 5194
4196, 4545, 4546, 4571, 4570, 5170, 5171, 5196, 5195
4197, 4546, 4547, 4572, 4571, 5171, 5172, 5197, 5196
4198, 4547, 4548, 4573, 4572, 5172, 5173, 5198, 5197
4199, 4548, 4549, 4574, 4573, 5173, 5174, 5199, 5198
4200, 4549, 4550, 4575, 4574, 5174, 5175, 5200, 5199
4201, 4551, 4552, 4577, 4576, 5176, 5177, 5202, 5201
4202, 4552, 4553, 4578, 4577, 5177, 5178, 5203, 5202
4203, 4553, 4554, 4579, 4578, 5178, 5179, 5204, 5203
4204, 4554, 4555, 4580, 4579, 5179, 5180, 5205, 5204
4205, 4555, 4556, 4581, 4580, 5180, 5181, 5206, 5205
4206, 4556, 4557, 4582, 4581, 5181, 5182, 5207, 5206
4207, 4557, 4558, 4583, 4582, 5182, 5183, 5208, 5207
4208, 4558, 4559, 4584, 4583, 5183, 5184, 5209, 5208
4209, 4559, 4560, 4585, 4584, 5184, 5185, 5210, 5209
4210, 4560, 4561, 4586, 4585, 5185, 5186, 5211, 5210
4211, 4561, 4562, 4587, 4586, 5186, 5187, 5212, 5211
4212, 4562, 4563, 4588, 4587, 5187, 5188, 5213, 5212
4213, 4563, 4564, 4589, 4588, 5188, 5189, 5214, 5213
4214, 4564, 4565, 4590, 4589, 5189, 5190, 5215, 5214
4215, 4565, 4566, 4591, 4590, 5190, 5191, 5216, 5215
4216, 4566, 4567, 4592, 4591, 5191, 5192, 5217, 5216
4217, 4567, 4568, 4593, 4592, 5192, 5193, 5218, 5217
4218, 4568, 4569, 4594, 4593, 5193, 5194, 5219, 5218
4219, 4569, 4570, 4595, 4594, 5194, 5195, 5220, 5219
4220, 4570, 4571, 4596, 4595, 5195, 5196, 5221, 5220
4221, 4571, 4572, 4597, 4596, 5196, 5197, 5222, 5221
4222, 4572, 4573, 4598, 4597, 5197, 5198, 5223, 5222
4223, 4573, 4574, 4599, 4598, 5198, 5199, 5224, 5223
4224, 4574, 4575, 4600, 4599, 5199, 5200, 5225, 5224
4225, 4576, 4577, 4602, 4601, 5201, 5202, 5227, 5226
4226, 4577, 4578, 4603, 4602, 5202, 5203, 5228, 5227
4227, 4578, 4579, 4604, 4603, 5203, 5204, 5229, 5228
4228, 4579, 4580, 4605, 4604, 5204, 5205, 5230, 5229
4229, 4580, 4581, 4606, 4605, 5205, 5206, 5231, 5230
4230, 4581, 4582, 4607, 4606, 5206, 5207, 5232, 5231
4231, 4582, 4583, 4608, 4607, 5207, 5208, 5233, 5232
4232, 4583, 4584, 4609, 4608, 5208, 5209, 5234, 5233
4233, 4584, 4585, 4610, 4609, 5209, 5210, 5235, 5234
4234, 4585, 4586, 4611, 4610, 5210, 5211, 5236, 5235
4235, 4586, 4587, 4612, 4611, 5211, 5212, 5237, 5236
4236, 4587, 4588, 4613, 4612, 5212, 5213, 5238, 5237
4237, 4588, 4589, 4614, 4613, 5213, 5214, 5239, 5238
4238, 4589, 4590, 4615, 4614, 5214, 5215, 5240, 5239
4239, 4590, 4591, 4616, 4615, 5215, 5216, 5241, 5240
4240, 4591, 4592, 4617, 4616, 5216, 5217, 5242, 5241
4241, 4592, 4593, 4618, 4617, 5217, 5218, 5243, 5242
4242, 4593, 4594, 4619, 4618, 5218, 5219, 5244, 5243
4243, 4594, 4595, 4620, 4619, 5219, 5220, 5245, 5244
4244, 4595, 4596, 4621, 4620, 5220, 5221, 5246, 5245
4245, 4596, 4597, 4622, 4621, 5221, 5222, 5247, 5246
4246, 4597, 4598, 4623, 4622, 5222, 5223, 5248, 5247
4247, 4598, 4599, 4624, 4623, 5223, 5224, 5249, 5248
4248, 4599, 4600, 4625, 4624, 5224, 5225, 5250, 5249
4249, 4601, 4602, 4627, 4626, 5226, 5227, 5252, 5251
4250, 4602, 4603, 4628, 4627, 5227, 5228, 5253, 5252
4251, 4603, 4604, 4629, 4628, 5228, 5229, 5254, 5253
4252, 4604, 4605, 4630, 4629, 5229, 5230, 5255, 5254
4253, 4605, 4606, 4631, 4630, 5230, 5231, 5256, 5255
4254, 4606, 4607, 4632, 4631, 5231, 5232, 5257, 5256
4255, 4607, 4608, 4633, 4632, 5232, 5233, 5258, 5257
4256, 4608, 4609, 4634, 4633, 5233, 5234, 5259, 5258
4257, 4609, 4610, 4635, 4634, 5234, 5235, 5260, 5259
4258, 4610, 4611, 4636, 4635, 5235, 5236, 5261, 5260
4259, 4611, 4612, 4637, 4636, 5236, 5237, 5262, 5261
4260, 4612, 4613, 4638, 4637, 5237, 5238, 5263, 5262
4261, 4613, 4614, 4639, 4638, 5238, 5239, 5264, 5263
4262, 4614, 4615, 4640, 4639, 5239, 5240, 5265, 5264
4263, 4615, 4616, 4641, 4640, 5240, 5241, 5266, 5265
4264, 4616, 4617, 4642, 4641, 5241, 5242, 5267, 5266
4265, 4617, 4618, 4643, 4642, 5242, 5243, 5268, 5267
4266, 4618, 4619, 4644, 4643, 5243, 5244, 5269, 5268
4267, 4619, 4620, 4645, 4644, 5244, 5245, 5270, 5269
4268, 4620, 4621, 4646, 4645, 5245, 5246, 5271, 5270
4269, 4621, 4622, 4647, 4646, 5246, 5247, 5272, 5271
4270, 4622, 4623, 4648, 4647, 5247, 5248, 5273, 5272
4271, 4623, 4624, 4649, 4648, 5248, 5249, 5274, 5273
4272, 4624, 4625, 4650, 4649, 5249, 5250, 5275, 5274
4273, 4626, 4627, 4652, 4651, 5251, 5252, 5277, 5276
4274, 4627, 4628, 4653, 4652, 5252, 5253, 5278, 5277
4275, 4628, 4629, 4654, 4653, 5253, 5254, 5279, 5278
4276, 4629, 4630, 4655, 4654, 5254, 5255, 5280, 5279
4277, 4630, 4631, 4656, 4655, 5255, 5256, 5281, 5280
4278, 4631, 4632, 4657, 4656, 5256, 5257, 5282, 5281
4279, 4632, 4633, 4658, 4657, 5257, 5258, 5283, 5282
4280, 4633, 4634, 4659, 4658, 5258, 5259, 5284, 5283
4281, 4634, 4635, 4660, 4659, 5259, 5260, 5285, 5284
4282, 4635, 4636, 4661, 4660, 5260, 5261, 5286, 5285
4283, 4636, 4637, 4662, 4661, 5261, 5262, 5287, 5286
4284, 4637, 4638, 4663, 4662, 5262, 5263, 5288, 5287
4285, 4638, 4639, 4664, 4663, 5263, 5264, 5289, 5288
4286, 4639, 4640, 4665, 4664, 5264, 5265, 5290, 5289
4287, 4640, 4641, 4666, 4665, 5265, 5266, 5291, 5290
4288, 4641, 4642, 4667, 4666, 5266, 5267, 5292, 5291
4289, 4642, 4643, 4668, 4667, 5267, 5268, 5293, 5292
4290, 4643, 4644, 4669, 4668, 5268, 5269, 5294, 5293
4291, 4644, 4645, 4670, 4669, 5269, 5270, 5295, 5294
4292, 4645, 4646, 4671, 4670, 5270, 5271, 5296, 5295
4293, 4646, 4647, 4672, 4671, 5271, 5272, 5297, 5296
4294, 4647, 4648, 4673, 4672, 5272, 5273, 5298, 5297
4295, 4648, 4649, 4674, 4673, 5273, 5274, 5299, 5298
4296, 4649, 4650, 4675, 4674, 5274, 5275, 5300, 5299
4297, 4651, 4652, 4677, 4676, 5276, 5277, 5302, 5301
4298, 4652, 4653, 4678, 4677, 5277, 5278, 5303, 5302
4299, 4653, 4654, 4679, 4678, 5278, 5279, 5304, 5303
4300, 4654, 4655, 4680, 4679, 5279, 5280, 5305, 5304
4301, 4655, 4656, 4681, 4680, 5280, 5281, 5306, 5305
4302, 4656, 4657, 4682, 4681, 5281, 5282, 5307, 5306
4303, 4657, 4658, 4683, 4682, 5282, 5283, 5308, 5307
4304, 4658, 4659, 4684, 4683, 5283, 5284, 5309, 5308
4305, 4659, 4660, 4685, 4684, 5284, 5285, 5310, 5309
4306, 4660, 4661, 4686, 4685, 5285, 5286, 5311, 5310
4307, 4661, 4662, 4687, 4686, 5286, 5287, 5312, 5311
4308, 4662, 4663, 4688, 4687, 5287, 5288, 5313, 5312
4309, 4663, 4664, 4689, 4688, 5288, 5289, 5314, 5313
4310, 4664, 4665, 4690, 4689, 5289, 5290, 5315, 5314
4311, 4665, 4666, 4691, 4690, 5290, 5291, 5316, 5315
4312, 4666, 4667, 4692, 4691, 5291, 5292, 5317, 5316
4313, 4667, 4668, 4693, 4692, 5292, 5293, 5318, 5317
4314, 4668, 4669, 4694, 4693, 5293, 5294, 5319, 5318
4315, 4669, 4670, 4695, 4694, 5294, 5295, 5320, 5319
4316, 4670, 4671, 4696, 4695, 5295, 5296, 5321, 5320
4317, 4671, 4672, 4697, 4696, 5296, 5297, 5322, 5321
4318, 4672, 4673, 4698, 4697, 5297, 5298, 5323, 5322
4319, 4673, 4674, 4699, 4698, 5298, 5299, 5324, 5323
4320, 4674, 4675, 4700, 4699, 5299, 5300, 5325, 5324
4321, 4676, 4677, 4702, 4701, 5301, 5302, 5327, 5326
4322, 4677, 4678, 4703, 4702, 5302, 5303, 5328, 5327
4323, 4678, 4679, 4704, 4703, 5303, 5304, 5329, 5328
4324, 4679, 4680, 4705, 4704, 5304, 5305, 5330, 5329
4325, 4680, 4681, 4706, 4705, 5305, 5306, 5331, 5330
4326, 4681, 4682, 4707, 4706, 5306, 5307, 5332, 5331
4327, 4682, 4683, 4708, 4707, 5307, 5308, 5333, 5332
4328, 4683, 4684, 4709, 4708, 5308, 5309, 5334, 5333
4329, 4684, 4685, 4710, 4709, 5309, 5310, 5335, 5334
4330, 4685, 4686, 4711, 4710, 5310, 5311, 5336, 5335
4331, 4686, 4687, 4712, 4711, 5311, 5312, 5337, 5336
4332, 4687, 4688, 4713, 4712, 5312, 5313, 5338, 5337
4333, 4688, 4689, 4714, 4713, 5313, 5314, 5339, 5338
4334, 4689, 4690, 4715, 4714, 5314, 5315, 5340, 5339
4335, 4690, 4691, 4716, 4715, 5315, 5316, 5341, 5340
4336, 4691, 4692, 4717, 4716, 5316, 5317, 5342, 5341
4337, 4692, 4693, 4718, 4717, 5317, 5318, 5343, 5342
4338, 4693, 4694, 4719, 4718, 5318, 5319, 5344, 5343
4339, 4694, 4695, 4720, 4719, 5319, 5320, 5345, 5344
4340, 4695, 4696, 4721, 4720, 5320, 5321, 5346, 5345
4341, 4696, 4697, 4722, 4721, 5321, 5322, 5347, 5346
4342, 4697, 4698, 4723, 4722, 5322, 5323, 5348, 5347
4343, 4698, 4699, 4724, 4723, 5323, 5324, 5349, 5348
4344, 4699, 4700, 4725, 4724, 5324, 5325, 5350, 5349
4345, 4701, 4702, 4727, 4726, 5326, 5327, 5352, 5351
4346, 4702, 4703, 4728, 4727, 5327, 5328, 5353, 5352
4347, 4703, 4704, 4729, 4728, 5328, 5329, 5354, 5353
4348, 4704, 4705, 4730, 4729, 5329, 5330, 5355, 5354
4349, 4705, 4706, 4731, 4730, 5330, 5331, 5356, 5355
4350, 4706, 4707, 4732, 4731, 5331, 5332, 5357, 5356
4351, 4707, 4708, 4733, 4732, 5332, 5333, 5358, 5357
4352, 4708, 4709, 4734, 4733, 5333, 5334, 5359, 5358
4353, 4709, 4710, 4735, 4734, 5334, 5335, 5360, 5359
4354, 4710, 4711, 4736, 4735, 5335, 5336, 5361, 5360
4355, 4711, 4712, 4737, 4736, 5336, 5337, 5362, 5361
4356, 4712, 4713, 4738, 4737, 5337, 5338, 5363, 5362
4357, 4713, 4714, 4739, 4738, 5338, 5339, 5364, 5363
4358, 4714, 4715, 4740, 4739, 5339, 5340, 5365, 5364
4359, 4715, 4716, 4741, 4740, 5340, 5341, 5366, 5365
4360, 4716, 4717, 4742, 4741, 5341, 5342, 5367, 5366
4361, 4717, 4718, 4743, 4742, 5342, 5343, 5368, 5367
4362, 4718, 4719, 4744, 4743, 5343, 5344, 5369, 5368
4363, 4719, 4720, 4745, 4744, 5344, 5345, 5370, 5369
4364, 4720, 4721, 4746, 4745, 5345, 5346, 5371, 5370
4365, 4721, 4722, 4747, 4746, 5346, 5347, 5372, 5371
4366, 4722, 4723, 4748, 4747, 5347, 5348, 5373, 5372
4367, 4723, 4724, 4749, 4748, 5348, 5349, 5374, 5373
4368, 4724, 4725, 4750, 4749, 5349, 5350, 5375, 5374
4369, 4726, 4727, 4752, 4751, 5351, 5352, 5377, 5376
4370, 4727, 4728, 4753, 4752, 5352, 5353, 5378, 5377
4371, 4728, 4729, 4754, 4753, 5353, 5354, 5379, 5378
4372, 4729, 4730, 4755, 4754, 5354, 5355, 5380, 5379
4373, 4730, 4731, 4756, 4755, 5355, 5356, 5381, 5380
4374, 4731, 4732, 4757, 4756, 5356, 5357, 5382, 5381
4375, 4732, 4733, 4758, 4757, 5357, 5358, 5383, 5382
4376, 4733, 4734, 4759, 4758, 5358, 5359, 5384, 5383
4377, 4734, 4735, 4760, 4759, 5359, 5360, 5385, 5384
4378, 4735, 4736, 4761, 4760, 5360, 5361, 5386, 5385
4379, 4736, 4737, 4762, 4761, 5361, 5362, 5387, 5386
4380, 4737, 4738, 4763, 4762, 5362, 5363, 5388, 5387
4381, 4738, 4739, 4764, 4763, 5363, 5364, 5389, 5388
4382, 4739, 4740, 4765, 4764, 5364, 5365, 5390, 5389
4383, 4740, 4741, 4766, 4765, 5365, 5366, 5391, 5390
4384, 4741, 4742, 4767, 4766, 5366, 5367, 5392, 5391
4385, 4742, 4743, 4768, 4767, 5367, 5368, 5393, 5392
4386, 4743, 4744, 4769, 4768, 5368, 5369, 5394, 5393
4387, 4744, 4745, 4770, 4769, 5369, 5370, 5395, 5394
4388, 4745, 4746, 4771, 4770, 5370, 5371, 5396, 5395
4389, 4746, 4747, 4772, 4771, 5371, 5372, 5397, 5396
4390, 4747, 4748, 4773, 4772, 5372, 5373, 5398, 5397
4391, 4748, 4749, 4774, 4773, 5373, 5374, 5399, 5398
4392, 4749, 4750, 4775, 4774, 5374, 5375, 5400, 5399
4393, 4751, 4752, 4777, 4776, 5376, 5377, 5402, 5401
4394, 4752, 4753, 4778, 4777, 5377, 5378, 5403, 5402
4395, 4753, 4754, 4779, 4778, 5378, 5379, 5404, 5403
4396, 4754, 4755, 4780, 4779, 5379, 5380, 5405, 5404
4397, 4755, 4756, 4781, 4780, 5380, 5381, 5406, 5405
4398, 4756, 4757, 4782, 4781, 5381, 5382, 5407, 5406
4399, 4757, 4758, 4783, 4782, 5382, 5383, 5408, 5407
4400, 4758, 4759, 4784, 4783, 5383, 5384, 5409, 5408
4401, 4759, 4760, 4785, 4784, 5384, 5385, 5410, 5409
4402, 4760, 4761, 4786, 4785, 5385, 5386, 5411, 5410
4403, 4761, 4762, 4787, 4786, 5386, 5387, 5412, 5411
4404, 4762, 4763, 4788, 4787, 5387, 5388, 5413, 5412
4405, 4763, 4764, 4789, 4788, 5388, 5389, 5414, 5413
4406, 4764, 4765, 4790, 4789, 5389, 5390, 5415, 5414
4407, 4765, 4766, 4791, 4790, 5390, 5391, 5416, 5415
4408, 4766, 4767, 4792, 4791, 5391, 5392, 5417, 5416
4409, 4767, 4768, 4793, 4792, 5392, 5393, 5418, 5417
4410, 4768, 4769, 4794, 4793, 5393, 5394, 5419, 5418
4411, 4769, 4770, 4795, 4794, 5394, 5395, 5420, 5419
4412, 4770, 4771, 4796, 4795, 5395, 5396, 5421, 5420
4413, 4771, 4772, 4797, 4796, 5396, 5397, 5422, 5421
4414, 4772, 4773, 4798, 4797, 5397, 5398, 5423, 5422
4415, 4773, 4774, 4799, 4798, 5398, 5399, 5424, 5423
4416, 4774, 4775, 4800, 4799, 5399, 5400, 5425, 5424
4417, 4776, 4777, 4802, 4801, 5401, 5402, 5427, 5426
4418, 4777, 4778, 4803, 4802, 5402, 5403, 5428, 5427
4419, 4778, 4779, 4804, 4803, 5403, 5404, 5429, 5428
4420, 4779, 4780, 4805, 4804, 5404, 5405, 5430, 5429
4421, 4780, 4781, 4806, 4805, 5405, 5406, 5431, 5430
4422, 4781, 4782, 4807, 4806, 5406, 5407, 5432, 5431
4423, 4782, 4783, 4808, 4807, 5407, 5408, 5433, 5432
4424, 4783, 4784, 4809, 4808, 5408, 5409, 5434, 5433
4425, 4784, 4785, 4810, 4809, 5409, 5410, 5435, 5434
4426, 4785, 4786, 4811, 4810, 5410, 5411, 5436, 5435
4427, 4786, 4787, 4812, 4811, 5411, 5412, 5437, 5436
4428, 4787, 4788, 4813, 4812, 5412, 5413, 5438, 5437
4429, 4788, 4789, 4814, 4813, 5413, 5414, 5439, 5438
4430, 4789, 4790, 4815, 4814, 5414, 5415, 5440, 5439
4431, 4790, 4791, 4816, 4815, 5415, 5416, 5441, 5440
4432, 4791, 4792, 4817, 4816, 5416, 5417, 5442, 5441
4433, 4792, 4793, 4818, 4817, 5417, 5418, 5443, 5442
4434, 4793, 4794, 4819, 4818, 5418, 5419, 5444, 5443
4435, 4794, 4795, 4820, 4819, 5419, 5420, 5445, 5444
4436, 4795, 4796, 4821, 4820, 5420, 5421, 5446, 5445
4437, 4796, 4797, 4822, 4821, 5421, 5422, 5447, 5446
4438, 4797, 4798, 4823, 4822, 5422, 5423, 5448, 5447
4439, 4798, 4799, 4824, 4823, 5423, 5424, 5449, 5448
4440, 4799, 4800, 4825, 4824, 5424, 5425, 5450, 5449
4441, 4801, 4802, 4827, 4826, 5426, 5427, 5452, 5451
4442, 4802, 4803, 4828, 4827, 5427, 5428, 5453, 5452
4443, 4803, 4804, 4829, 4828, 5428, 5429, 5454, 5453
4444, 4804, 4805, 4830, 4829, 5429, 5430, 5455, 5454
4445, 4805, 4806, 4831, 4830, 5430, 5431, 5456, 5455
4446, 4806, 4807, 4832, 4831, 5431, 5432, 5457, 5456
4447, 4807, 4808, 4833, 4832, 5432, 5433, 5458, 5457
4448, 4808, 4809, 4834, 4833, 5433, 5434, 5459, 5458
4449, 4809, 4810, 4835, 4834, 5434, 5435, 5460, 5459
4450, 4810, 4811, 4836, 4835, 5435, 5436, 5461, 5460
4451, 4811, 4812, 4837, 4836, 5436, 5437, 5462, 5461
4452, 4812, 4813, 4838, 4837, 5437, 5438, 5463, 5462
4453, 4813, 4814, 4839, 4838, 5438, 5439, 5464, 5463
4454, 4814, 4815, 4840, 4839, 5439, 5440, 5465, 5464
4455, 4815, 4816, 4841, 4840, 5440, 5441, 5466, 5465
4456, 4816, 4817, 4842, 4841, 5441, 5442, 5467, 5466
4457, 4817, 4818, 4843, 4842, 5442, 5443, 5468, 5467
4458, 4818, 4819, 4844, 4843, 5443, 5444, 5469, 5468
4459, 4819, 4820, 4845, 4844, 5444, 5445, 5470, 5469
4460, 4820, 4821, 4846, 4845, 5445, 5446, 5471, 5470
4461, 4821, 4822, 4847, 4846, 5446, 5447, 5472, 5471
4462, 4822, 4823, 4848, 4847, 5447, 5448, 5473, 5472
4463, 4823, 4824, 4849, 4848, 5448, 5449, 5474, 5473
4464, 4824, 4825, 4850, 4849, 5449, 5450, 5475, 5474
4465, 4826, 4827, 4852, 4851, 5451, 5452, 5477, 5476
4466, 4827, 4828, 4853, 4852, 5452, 5453, 5478, 5477
4467, 4828, 4829, 4854, 4853, 5453, 5454, 5479, 5478
4468, 4829, 4830, 4855, 4854, 5454, 5455, 5480, 5479
4469, 4830, 4831, 4856, 4855, 5455, 5456, 5481, 5480
4470, 4831, 4832, 4857, 4856, 5456, 5457, 5482, 5481
4471, 4832, 4833, 4858, 4857, 5457, 5458, 5483, 5482
4472, 4833, 4834, 4859, 4858, 5458, 5459, 5484, 5483
4473, 4834, 4835, 4860, 4859, 5459, 5460, 5485, 5484
4474, 4835, 4836, 4861, 4860, 5460, 5461, 5486, 5485
4475, 4836, 4837, 4862, 4861, 5461, 5462, 5487, 5486
4476, 4837, 4838, 4863, 4862, 5462, 5463, 5488, 5487
4477, 4838, 4839, 4864, 4863, 5463, 5464, 5489, 5488
4478, 4839, 4840, 4865, 4864, 5464, 5465, 5490, 5489
4479, 4840, 4841, 4866, 4865, 5465, 5466, 5491, 5490
4480, 4841, 4842, 4867, 4866, 5466, 5467, 5492, 5491
4481, 4842, 4843, 4868, 4867, 5467, 5468, 5493, 5492
4482, 4843, 4844, 4869, 4868, 5468, 5469, 5494, 5493
4483, 4844, 4845, 4870, 4869, 5469, 5470, 5495, 5494
4484, 4845, 4846, 4871, 4870, 5470, 5471, 5496, 5495
4485, 4846, 4847, 4872, 4871, 5471, 5472, 5497, 5496
4486, 4847, 4848, 4873, 4872, 5472, 5473, 5498, 5497
4487, 4848, 4849, 4874, 4873, 5473, 5474, 5499, 5498
4488, 4849, 4850, 4875, 4874, 5474, 5475, 5500, 5499
4489, 4851, 4852, 4877, 4876, 5476, 5477, 5502, 5501
4490, 4852, 4853, 4878, 4877, 5477, 5478, 5503, 5502
4491, 4853, 4854, 4879, 4878, 5478, 5479, 5504, 5503
4492, 4854, 4855, 4880, 4879, 5479, 5480, 5505, 5504
4493, 4855, 4856, 4881, 4880, 5480, 5481, 5506, 5505
4494, 4856, 4857, 4882, 4881, 5481, 5482, 5507, 5506
4495, 4857, 4858, 4883, 4882, 5482, 5483, 5508, 5507
4496, 4858, 4859, 4884, 4883, 5483, 5484, 5509, 5508
4497, 4859, 4860, 4885, 4884, 5484, 5485, 5510, 5509
4498, 4860, 4861, 4886, 4885, 5485, 5486, 5511, 5510
4499, 4861, 4862, 4887, 4886, 5486, 5487, 5512, 5511
4500, 4862, 4863, 4888, 4887, 5487, 5488, 5513, 5512
4501, 4863, 4864, 4889, 4888, 5488, 5489, 5514, 5513
4502, 4864, 4865, 4890, 4889, 5489, 5490, 5515, 5514
4503, 4865, 4866, 4891, 4890, 5490, 5491, 5516, 5515
4504, 4866, 4867, 4892, 4891, 5491, 5492, 5517, 5516
4505, 4867, 4868, 4893, 4892, 5492, 5493, 5518, 5517
4506, 4868, 4869, 4894, 4893, 5493, 5494, 5519, 5518
4507, 4869, 4870, 4895, 4894, 5494, 5495, 5520, 5519
4508, 4870, 4871, 4896, 4895, 5495, 5496, 5521, 5520
4509, 4871, 4872, 4897, 4896, 5496, 5497, 5522, 5521
4510, 4872, 4873, 4898, 4897, 5497, 5498, 5523, 5522
4511, 4873, 4874, 4899, 4898, 5498, 5499, 5524, 5523
4512, 4874, 4875, 4900, 4899, 5499, 5500, 5525, 5524
4513, 4876, 4877, 4902, 4901, 5501, 5502, 5527, 5526
4514, 4877, 4878, 4903, 4902, 5502, 5503, 5528, 5527
4515, 4878, 4879, 4904, 4903, 5503, 5504, 5529, 5528
4516, 4879, 4880, 4905, 4904, 5504, 5505, 5530, 5529
4517, 4880, 4881, 4906, 4905, 5505, 5506, 5531, 5530
4518, 4881, 4882, 4907, 4906, 5506, 5507, 5532, 5531
4519, 4882, 4883, 4908, 4907, 5507, 5508, 5533, 5532
4520, 4883, 4884, 4909, 4908, 5508, 5509, 5534, 5533
4521, 4884, 4885, 4910, 4909, 5509, 5510, 5535, 5534
4522, 4885, 4886, 4911, 4910, 5510, 5511, 5536, 5535
4523, 4886, 4887, 4912, 4911, 5511, 5512, 5537, 5536
4524, 4887, 4888, 4913, 4912, 5512, 5513, 5538, 5537
4525, 4888, 4889, 4914, 4913, 5513, 5514, 5539, 5538
4526, 4889, 4890, 4915, 4914, 5514, 5515, 5540, 5539
4527, 4890, 4891, 4916, 4915, 5515, 5516, 5541, 5540
4528, 4891, 4892, 4917, 4916, 5516, 5517, 5542, 5541
4529, 4892, 4893, 4918, 4917, 5517, 5518, 5543, 5542
4530, 4893, 4894, 4919, 4918, 5518, 5519, 5544, 5543
4531, 4894, 4895, 4920, 4919, 5519, 5520, 5545, 5544
4532, 4895, 4896, 4921, 4920, 5520, 5521, 5546, 5545
4533, 4896, 4897, 4922, 4921, 5521, 5522, 5547, 5546
4534, 4897, 4898, 4923, 4922, 5522, 5523, 5548, 5547
4535, 4898, 4899, 4924, 4923, 5523, 5524, 5549, 5548
4536, 4899, 4900, 4925, 4924, 5524, 5525, 5550, 5549
4537, 4901, 4902, 4927, 4926, 5526, 5527, 5552, 5551
4538, 4902, 4903, 4928, 4927, 5527, 5528, 5553, 5552
4539, 4903, 4904, 4929, 4928, 5528, 5529, 5554, 5553
4540, 4904, 4905, 4930, 4929, 5529, 5530, 5555, 5554
4541, 4905, 4906, 4931, 4930, 5530, 5531, 5556, 5555
4542, 4906, 4907, 4932, 4931, 5531, 5532, 5557, 5556
4543, 4907, 4908, 4933, 4932, 5532, 5533, 5558, 5557
4544, 4908, 4909, 4934, 4933, 5533, 5534, 5559, 5558
4545, 4909, 4910, 4935, 4934, 5534, 5535, 5560, 5559
4546, 4910, 4911, 4936, 4935, 5535, 5536, 5561, 5560
4547, 4911, 4912, 4937, 4936, 5536, 5537, 5562, 5561
4548, 4912, 4913, 4938, 4937, 5537, 5538, 5563, 5562
4549, 4913, 4914, 4939, 4938, 5538, 5539, 5564, 5563
4550, 4914, 4915, 4940, 4939, 5539, 5540, 5565, 5564
4551, 4915, 4916, 4941, 4940, 5540, 5541, 5566, 5565
4552, 4916, 4917, 4942, 4941, 5541, 5542, 5567, 5566
4553, 4917, 4918, 4943, 4942, 5542, 5543, 5568, 5567
4554, 4918, 4919, 4944, 4943, 5543, 5544, 5569, 5568
4555, 4919, 4920, 4945, 4944, 5544, 5545, 5570, 5569
4556, 4920, 4921, 4946, 4945, 5545, 5546, 5571, 5570
4557, 4921, 4922, 4947, 4946, 5546, 5547, 5572, 5571
4558, 4922, 4923, 4948, 4947, 5547, 5548, 5573, 5572
4559, 4923, 4924, 4949, 4948, 5548, 5549, 5574, 5573
4560, 4924, 4925, 4950, 4949, 5549, 5550, 5575, 5574
4561, 4926, 4927, 4952, 4951, 5551, 5552, 5577, 5576
4562, 4927, 4928, 4953, 4952, 5552, 5553, 5578, 5577
4563, 4928, 4929, 4954, 4953, 5553, 5554, 5579, 5578
4564, 4929, 4930, 4955, 4954, 5554, 5555, 5580, 5579
4565, 4930, 4931, 4956, 4955, 5555, 5556, 5581, 5580
4566, 4931, 4932, 4957, 4956, 5556, 5557, 5582, 5581
4567, 4932, 4933, 4958, 4957, 5557, 5558, 5583, 5582
4568, 4933, 4934, 4959, 4958, 5558, 5559, 5584, 5583
4569, 4934, 4935, 4960, 4959, 5559, 5560, 5585, 5584
4570, 4935, 4936, 4961, 4960, 5560, 5561, 5586, 5585
4571, 4936, 4937, 4962, 4961, 5561, 5562, 5587, 5586
4572, 4937, 4938, 4963, 4962, 5562, 5563, 5588, 5587
4573, 4938, 4939, 4964, 4963, 5563, 5564, 5589, 5588
4574, 4939, 4940, 4965, 4964, 5564, 5565, 5590, 5589
4575, 4940, 4941, 4966, 4965, 5565, 5566, 5591, 5590
4576, 4941, 4942, 4967, 4966, 5566, 5567, 5592, 5591
4577, 4942, 4943, 4968, 4967, 5567, 5568, 5593, 5592
4578, 4943, 4944, 4969, 4968, 5568, 5569, 5594, 5593
4579, 4944, 4945, 4970, 4969, 5569, 5570, 5595, 5594
4580, 4945, 4946, 4971, 4970, 5570, 5571, 5596, 5595
4581, 4946, 4947, 4972, 4971, 5571, 5572, 5597, 5596
4582, 4947, 4948, 4973, 4972, 5572, 5573, 5598, 5597
4583, 4948, 4949, 4974, 4973, 5573, 5574, 5599, 5598
4584, 4949, 4950, 4975, 4974, 5574, 5575, 5600, 5599
4585, 4951, 4952, 4977, 4976, 5576, 5577, 5602, 5601
4586, 4952, 4953, 4978, 4977, 5577, 5578, 5603, 5602
4587, 4953, 4954, 4979, 4978, 5578, 5579, 5604, 5603
4588, 4954, 4955, 4980, 4979, 5579, 5580, 5605, 5604
4589, 4955, 4956, 4981, 4980, 5580, 5581, 5606, 5605
4590, 4956, 4957, 4982, 4981, 5581, 5582, 5607, 5606
4591, 4957, 4958, 4983, 4982, 5582, 5583, 5608, 5607
4592, 4958, 4959, 4984, 4983, 5583, 5584, 5609, 5608
4593, 4959, 4960, 4985, 4984, 5584, 5585, 5610, 5609
4594, 4960, 4961, 4986, 4985, 5585, 5586, 5611, 5610
4595, 4961, 4962, 4987, 4986, 5586, 5587, 5612, 5611
4596, 4962, 4963, 4988, 4987, 5587, 5588, 5613, 5612
4597, 4963, 4964, 4989, 4988, 5588, 5589, 5614, 5613
4598, 4964, 4965, 4990, 4989, 5589, 5590, 5615, 5614
4599, 4965, 4966, 4991, 4990, 5590, 5591, 5616, 5615
4600, 4966, 4967, 4992, 4991, 5591, 5592, 5617, 5616
4601, 4967, 4968, 4993, 4992, 5592, 5593, 5618, 5617
4602, 4968, 4969, 4994, 4993, 5593, 5594, 5619, 5618
4603, 4969, 4970, 4995, 4994, 5594, 5595, 5620, 5619
4604, 4970, 4971, 4996, 4995, 5595, 5596, 5621, 5620
4605, 4971, 4972, 4997, 4996, 5596, 5597, 5622, 5621
4606, 4972, 4973, 4998, 4997, 5597, 5598, 5623, 5622
4607, 4973, 4974, 4999, 4998, 5598, 5599, 5624, 5623
4608, 4974, 4975, 5000, 4999, 5599, 5600, 5625, 5624
*ELSET, ELSET=PLY1, GENERATE
1, 2304, 1
*ELSET, ELSET=PLY2, GENERATE
2305, 4608, 1
*ELEMENT, TYPE=MASS, ELSET=CM
5608, 2501
*MASS, ELSET=CM
50,
*NSET, NSET=NM3D
2813
*NSET, NSET=NA3D
2501
*NSET, NSET=NBC3D
25, 50, 75, 100, 125, 150, 175, 200, 225, 250, 275, 300
325, 350, 375, 400, 425, 450, 475, 500, 525, 550, 575, 600
625, 650, 675, 700, 725, 750, 775, 800, 825, 850, 875, 900
925, 950, 975, 1000, 1025, 1050, 1075, 1100, 1125, 1150, 1175, 1200
1225, 1250, 1275, 1300, 1325, 1350, 1375, 1400, 1425, 1450, 1475, 1500
1525, 1550, 1575, 1600, 1625, 1650, 1675, 1700, 1725, 1750, 1775, 1800
1825, 1850, 1875, 1900, 1925, 1950, 1975, 2000, 2025, 2050, 2075, 2100
2125, 2150, 2175, 2200, 2225, 2250, 2275, 2300, 2325, 2350, 2375, 2400
2425, 2450, 2475, 2500, 2525, 2550, 2575, 2600, 2625, 2650, 2675, 2700
2725, 2750, 2775, 2800, 2825, 2850, 2875, 2900, 2925, 2950, 2975, 3000
3025, 3050, 3075, 3100, 3125, 3150, 3175, 3200, 3225, 3250, 3275, 3300
3325, 3350, 3375, 3400, 3425, 3450, 3475, 3500, 3525, 3550, 3575, 3600
3625, 3650, 3675, 3700, 3725, 3750, 3775, 3800, 3825, 3850, 3875, 3900
3925, 3950, 3975, 4000, 4025, 4050, 4075, 4100, 4125, 4150, 4175, 4200
4225, 4250, 4275, 4300, 4325, 4350, 4375, 4400, 4425, 4450, 4475, 4500
4525, 4550, 4575, 4600, 4625, 4650, 4675, 4700, 4725, 4750, 4775, 4800
4825, 4850, 4875, 4900, 4925, 4950, 4975, 5000, 5025, 5050, 5075, 5100
5125, 5150, 5175, 5200, 5225, 5250, 5275, 5300, 5325, 5350, 5375, 5400
5425, 5450, 5475, 5500, 5525, 5550, 5575, 5600, 5625
*NSET, NSET=NCD3D
601, 602, 603, 604, 605, 606, 607, 608, 609, 610, 611, 612
613, 614, 615, 616, 617, 618, 619, 620, 621, 622, 623, 624
625, 1226, 1227, 1228, 1229, 1230, 1231, 1232, 1233, 1234, 1235, 1236
1237, 1238, 1239, 1240, 1241, 1242, 1243, 1244, 1245, 1246, 1247, 1248
1249, 1250, 1851, 1852, 1853, 1854, 1855, 1856, 1857, 1858, 1859, 1860
1861, 1862, 1863, 1864, 1865, 1866, 1867, 1868, 1869, 1870, 1871, 1872
1873, 1874, 1875, 2476, 2477, 2478, 2479, 2480, 2481, 2482, 2483, 2484
2485, 2486, 2487, 2488, 2489, 2490, 2491, 2492, 2493, 2494, 2495, 2496
2497, 2498, 2499, 2500, 3101, 3102, 3103, 3104, 3105, 3106, 3107, 3108
3109, 3110, 3111, 3112, 3113, 3114, 3115, 3116, 3117, 3118, 3119, 3120
3121, 3122, 3123, 3124, 3125, 3726, 3727, 3728, 3729, 3730, 3731, 3732
3733, 3734, 3735, 3736, 3737, 3738, 3739, 3740, 3741, 3742, 3743, 3744
3745, 3746, 3747, 3748, 3749, 3750, 4351, 4352, 4353, 4354, 4355, 4356
4357, 4358, 4359, 4360, 4361, 4362, 4363, 4364, 4365, 4366, 4367, 4368
4369, 4370, 4371, 4372, 4373, 4374, 4375, 4976, 4977, 4978, 4979, 4980
4981, 4982, 4983, 4984, 4985, 4986, 4987, 4988, 4989, 4990, 4991, 4992
4993, 4994, 4995, 4996, 4997, 4998, 4999, 5000, 5601, 5602, 5603, 5604
5605, 5606, 5607, 5608, 5609, 5610, 5611, 5612, 5613, 5614, 5615, 5616
5617, 5618, 5619, 5620, 5621, 5622, 5623, 5624, 5625
*ELSET, ELSET=COLM3D
276, 277, 300, 301, 852, 853, 876, 877, 1428, 1429, 1452, 1453
2004, 2005, 2028, 2029, 2580, 2581, 2604, 2605, 3156, 3157, 3180, 3181
3732, 3733, 3756, 3757, 4308, 4309, 4332, 4333
*ELSET, ELSET=COLQ3D
414, 415, 438, 439, 990, 991, 1014, 1015, 1566, 1567, 1590, 1591
2142, 2143, 2166, 2167, 2718, 2719, 2742, 2743, 3294, 3295, 3318, 3319
3870, 3871, 3894, 3895, 4446, 4447, 4470, 4471
**
*MATERIAL, NAME=YU62
*ELASTIC, TYPE=ENGINEERING CONSTANTS
1.724000e+11, 6.900000e+09, 6.900000e+09, 0.25, 0.25, 0.25, 3.450000e+09, 3.450000e+09,
1.380000e+09
*DENSITY
1600,
*ORIENTATION, NAME=OR1, SYSTEM=RECTANGULAR
1.0, 0.0, 0.0, 0.0, 1.0, 0.0
3, 90
*SOLID SECTION, ELSET=PLY1, MATERIAL=YU62, ORIENTATION=OR1
*ORIENTATION, NAME=OR2, SYSTEM=RECTANGULAR
1.0, 0.0, 0.0, 0.0, 1.0, 0.0
3, 0
*SOLID SECTION, ELSET=PLY2, MATERIAL=YU62, ORIENTATION=OR2
**
*BOUNDARY
NBC3D, 1, 3
NCD3D, 1, 3
**
*AMPLITUDE, NAME=TRI
0., 0., 0.001, 1., 0.002, 0., 1., 0.
**
*STEP, NAME=IMPULSE, INC=2000
*DYNAMIC
0.0001, 0.05, 1e-08, 0.0001
*CLOAD, AMPLITUDE=TRI
2501, 3, -10000
*OUTPUT, FIELD, FREQUENCY=50
*ELEMENT OUTPUT
S
*NODE OUTPUT
U
*NODE PRINT, NSET=NM3D, FREQUENCY=1
U
*NODE PRINT, NSET=NA3D, FREQUENCY=1
U
*EL PRINT, ELSET=COLM3D, POSITION=CENTROIDAL, FREQUENCY=96
S
*EL PRINT, ELSET=COLQ3D, POSITION=CENTROIDAL, FREQUENCY=96
S
*END STEP
