*HEADING
Yu-2003 sec. 6.2 dynamics: clamped [90/0] plate, corner mass, impulse
** MSG-RM 8x8 general section; w = 0.04 m, h = 0.01 m, S4 24 x 24
** corner mass 50 kg at A, impulse to 10000 N over 0.002 s, dt = 0.0001 s
** recovery patches: M node (12,12), Q node (6,18)
*NODE
1, 0.00000000, 0.00000000, 0.0
2, 0.00166667, 0.00000000, 0.0
3, 0.00333333, 0.00000000, 0.0
4, 0.00500000, 0.00000000, 0.0
5, 0.00666667, 0.00000000, 0.0
6, 0.00833333, 0.00000000, 0.0
7, 0.01000000, 0.00000000, 0.0
8, 0.01166667, 0.00000000, 0.0
9, 0.01333333, 0.00000000, 0.0
10, 0.01500000, 0.00000000, 0.0
11, 0.01666667, 0.00000000, 0.0
12, 0.01833333, 0.00000000, 0.0
13, 0.02000000, 0.00000000, 0.0
14, 0.02166667, 0.00000000, 0.0
15, 0.02333333, 0.00000000, 0.0
16, 0.02500000, 0.00000000, 0.0
17, 0.02666667, 0.00000000, 0.0
18, 0.02833333, 0.00000000, 0.0
19, 0.03000000, 0.00000000, 0.0
20, 0.03166667, 0.00000000, 0.0
21, 0.03333333, 0.00000000, 0.0
22, 0.03500000, 0.00000000, 0.0
23, 0.03666667, 0.00000000, 0.0
24, 0.03833333, 0.00000000, 0.0
25, 0.04000000, 0.00000000, 0.0
26, 0.00000000, 0.00166667, 0.0
27, 0.00166667, 0.00166667, 0.0
28, 0.00333333, 0.00166667, 0.0
29, 0.00500000, 0.00166667, 0.0
30, 0.00666667, 0.00166667, 0.0
31, 0.00833333, 0.00166667, 0.0
32, 0.01000000, 0.00166667, 0.0
33, 0.01166667, 0.00166667, 0.0
34, 0.01333333, 0.00166667, 0.0
35, 0.01500000, 0.00166667, 0.0
36, 0.01666667, 0.00166667, 0.0
37, 0.01833333, 0.00166667, 0.0
38, 0.02000000, 0.00166667, 0.0
39, 0.02166667, 0.00166667, 0.0
40, 0.02333333, 0.00166667, 0.0
41, 0.02500000, 0.00166667, 0.0
42, 0.02666667, 0.00166667, 0.0
43, 0.02833333, 0.00166667, 0.0
44, 0.03000000, 0.00166667, 0.0
45, 0.03166667, 0.00166667, 0.0
46, 0.03333333, 0.00166667, 0.0
47, 0.03500000, 0.00166667, 0.0
48, 0.03666667, 0.00166667, 0.0
49, 0.03833333, 0.00166667, 0.0
50, 0.04000000, 0.00166667, 0.0
51, 0.00000000, 0.00333333, 0.0
52, 0.00166667, 0.00333333, 0.0
53, 0.00333333, 0.00333333, 0.0
54, 0.00500000, 0.00333333, 0.0
55, 0.00666667, 0.00333333, 0.0
56, 0.00833333, 0.00333333, 0.0
57, 0.01000000, 0.00333333, 0.0
58, 0.01166667, 0.00333333, 0.0
59, 0.01333333, 0.00333333, 0.0
60, 0.01500000, 0.00333333, 0.0
61, 0.01666667, 0.00333333, 0.0
62, 0.01833333, 0.00333333, 0.0
63, 0.02000000, 0.00333333, 0.0
64, 0.02166667, 0.00333333, 0.0
65, 0.02333333, 0.00333333, 0.0
66, 0.02500000, 0.00333333, 0.0
67, 0.02666667, 0.00333333, 0.0
68, 0.02833333, 0.00333333, 0.0
69, 0.03000000, 0.00333333, 0.0
70, 0.03166667, 0.00333333, 0.0
71, 0.03333333, 0.00333333, 0.0
72, 0.03500000, 0.00333333, 0.0
73, 0.03666667, 0.00333333, 0.0
74, 0.03833333, 0.00333333, 0.0
75, 0.04000000, 0.00333333, 0.0
76, 0.00000000, 0.00500000, 0.0
77, 0.00166667, 0.00500000, 0.0
78, 0.00333333, 0.00500000, 0.0
79, 0.00500000, 0.00500000, 0.0
80, 0.00666667, 0.00500000, 0.0
81, 0.00833333, 0.00500000, 0.0
82, 0.01000000, 0.00500000, 0.0
83, 0.01166667, 0.00500000, 0.0
84, 0.01333333, 0.00500000, 0.0
85, 0.01500000, 0.00500000, 0.0
86, 0.01666667, 0.00500000, 0.0
87, 0.01833333, 0.00500000, 0.0
88, 0.02000000, 0.00500000, 0.0
89, 0.02166667, 0.00500000, 0.0
90, 0.02333333, 0.00500000, 0.0
91, 0.02500000, 0.00500000, 0.0
92, 0.02666667, 0.00500000, 0.0
93, 0.02833333, 0.00500000, 0.0
94, 0.03000000, 0.00500000, 0.0
95, 0.03166667, 0.00500000, 0.0
96, 0.03333333, 0.00500000, 0.0
97, 0.03500000, 0.00500000, 0.0
98, 0.03666667, 0.00500000, 0.0
99, 0.03833333, 0.00500000, 0.0
100, 0.04000000, 0.00500000, 0.0
101, 0.00000000, 0.00666667, 0.0
102, 0.00166667, 0.00666667, 0.0
103, 0.00333333, 0.00666667, 0.0
104, 0.00500000, 0.00666667, 0.0
105, 0.00666667, 0.00666667, 0.0
106, 0.00833333, 0.00666667, 0.0
107, 0.01000000, 0.00666667, 0.0
108, 0.01166667, 0.00666667, 0.0
109, 0.01333333, 0.00666667, 0.0
110, 0.01500000, 0.00666667, 0.0
111, 0.01666667, 0.00666667, 0.0
112, 0.01833333, 0.00666667, 0.0
113, 0.02000000, 0.00666667, 0.0
114, 0.02166667, 0.00666667, 0.0
115, 0.02333333, 0.00666667, 0.0
116, 0.02500000, 0.00666667, 0.0
117, 0.02666667, 0.00666667, 0.0
118, 0.02833333, 0.00666667, 0.0
119, 0.03000000, 0.00666667, 0.0
120, 0.03166667, 0.00666667, 0.0
121, 0.03333333, 0.00666667, 0.0
122, 0.03500000, 0.00666667, 0.0
123, 0.03666667, 0.00666667, 0.0
124, 0.03833333, 0.00666667, 0.0
125, 0.04000000, 0.00666667, 0.0
126, 0.00000000, 0.00833333, 0.0
127, 0.00166667, 0.00833333, 0.0
128, 0.00333333, 0.00833333, 0.0
129, 0.00500000, 0.00833333, 0.0
130, 0.00666667, 0.00833333, 0.0
131, 0.00833333, 0.00833333, 0.0
132, 0.01000000, 0.00833333, 0.0
133, 0.01166667, 0.00833333, 0.0
134, 0.01333333, 0.00833333, 0.0
135, 0.01500000, 0.00833333, 0.0
136, 0.01666667, 0.00833333, 0.0
137, 0.01833333, 0.00833333, 0.0
138, 0.02000000, 0.00833333, 0.0
139, 0.02166667, 0.00833333, 0.0
140, 0.02333333, 0.00833333, 0.0
141, 0.02500000, 0.00833333, 0.0
142, 0.02666667, 0.00833333, 0.0
143, 0.02833333, 0.00833333, 0.0
144, 0.03000000, 0.00833333, 0.0
145, 0.03166667, 0.00833333, 0.0
146, 0.03333333, 0.00833333, 0.0
147, 0.03500000, 0.00833333, 0.0
148, 0.03666667, 0.00833333, 0.0
149, 0.03833333, 0.00833333, 0.0
150, 0.04000000, 0.00833333, 0.0
151, 0.00000000, 0.01000000, 0.0
152, 0.00166667, 0.01000000, 0.0
153, 0.00333333, 0.01000000, 0.0
154, 0.00500000, 0.01000000, 0.0
155, 0.00666667, 0.01000000, 0.0
156, 0.00833333, 0.01000000, 0.0
157, 0.01000000, 0.01000000, 0.0
158, 0.01166667, 0.01000000, 0.0
159, 0.01333333, 0.01000000, 0.0
160, 0.01500000, 0.01000000, 0.0
161, 0.01666667, 0.01000000, 0.0
162, 0.01833333, 0.01000000, 0.0
163, 0.02000000, 0.01000000, 0.0
164, 0.02166667, 0.01000000, 0.0
165, 0.02333333, 0.01000000, 0.0
166, 0.02500000, 0.01000000, 0.0
167, 0.02666667, 0.01000000, 0.0
168, 0.02833333, 0.01000000, 0.0
169, 0.03000000, 0.01000000, 0.0
170, 0.03166667, 0.01000000, 0.0
171, 0.03333333, 0.01000000, 0.0
172, 0.03500000, 0.01000000, 0.0
173, 0.03666667, 0.01000000, 0.0
174, 0.03833333, 0.01000000, 0.0
175, 0.04000000, 0.01000000, 0.0
176, 0.00000000, 0.01166667, 0.0
177, 0.00166667, 0.01166667, 0.0
178, 0.00333333, 0.01166667, 0.0
179, 0.00500000, 0.01166667, 0.0
180, 0.00666667, 0.01166667, 0.0
181, 0.00833333, 0.01166667, 0.0
182, 0.01000000, 0.01166667, 0.0
183, 0.01166667, 0.01166667, 0.0
184, 0.01333333, 0.01166667, 0.0
185, 0.01500000, 0.01166667, 0.0
186, 0.01666667, 0.01166667, 0.0
187, 0.01833333, 0.01166667, 0.0
188, 0.02000000, 0.01166667, 0.0
189, 0.02166667, 0.01166667, 0.0
190, 0.02333333, 0.01166667, 0.0
191, 0.02500000, 0.01166667, 0.0
192, 0.02666667, 0.01166667, 0.0
193, 0.02833333, 0.01166667, 0.0
194, 0.03000000, 0.01166667, 0.0
195, 0.03166667, 0.01166667, 0.0
196, 0.03333333, 0.01166667, 0.0
197, 0.03500000, 0.01166667, 0.0
198, 0.03666667, 0.01166667, 0.0
199, 0.03833333, 0.01166667, 0.0
200, 0.04000000, 0.01166667, 0.0
201, 0.00000000, 0.01333333, 0.0
202, 0.00166667, 0.01333333, 0.0
203, 0.00333333, 0.01333333, 0.0
204, 0.00500000, 0.01333333, 0.0
205, 0.00666667, 0.01333333, 0.0
206, 0.00833333, 0.01333333, 0.0
207, 0.01000000, 0.01333333, 0.0
208, 0.01166667, 0.01333333, 0.0
209, 0.01333333, 0.01333333, 0.0
210, 0.01500000, 0.01333333, 0.0
211, 0.01666667, 0.01333333, 0.0
212, 0.01833333, 0.01333333, 0.0
213, 0.02000000, 0.01333333, 0.0
214, 0.02166667, 0.01333333, 0.0
215, 0.02333333, 0.01333333, 0.0
216, 0.02500000, 0.01333333, 0.0
217, 0.02666667, 0.01333333, 0.0
218, 0.02833333, 0.01333333, 0.0
219, 0.03000000, 0.01333333, 0.0
220, 0.03166667, 0.01333333, 0.0
221, 0.03333333, 0.01333333, 0.0
222, 0.03500000, 0.01333333, 0.0
223, 0.03666667, 0.01333333, 0.0
224, 0.03833333, 0.01333333, 0.0
225, 0.04000000, 0.01333333, 0.0
226, 0.00000000, 0.01500000, 0.0
227, 0.00166667, 0.01500000, 0.0
228, 0.00333333, 0.01500000, 0.0
229, 0.00500000, 0.01500000, 0.0
230, 0.00666667, 0.01500000, 0.0
231, 0.00833333, 0.01500000, 0.0
232, 0.01000000, 0.01500000, 0.0
233, 0.01166667, 0.01500000, 0.0
234, 0.01333333, 0.01500000, 0.0
235, 0.01500000, 0.01500000, 0.0
236, 0.01666667, 0.01500000, 0.0
237, 0.01833333, 0.01500000, 0.0
238, 0.02000000, 0.01500000, 0.0
239, 0.02166667, 0.01500000, 0.0
240, 0.02333333, 0.01500000, 0.0
241, 0.02500000, 0.01500000, 0.0
242, 0.02666667, 0.01500000, 0.0
243, 0.02833333, 0.01500000, 0.0
244, 0.03000000, 0.01500000, 0.0
245, 0.03166667, 0.01500000, 0.0
246, 0.03333333, 0.01500000, 0.0
247, 0.03500000, 0.01500000, 0.0
248, 0.03666667, 0.01500000, 0.0
249, 0.03833333, 0.01500000, 0.0
250, 0.04000000, 0.01500000, 0.0
251, 0.00000000, 0.01666667, 0.0
252, 0.00166667, 0.01666667, 0.0
253, 0.00333333, 0.01666667, 0.0
254, 0.00500000, 0.01666667, 0.0
255, 0.00666667, 0.01666667, 0.0
256, 0.00833333, 0.01666667, 0.0
257, 0.01000000, 0.01666667, 0.0
258, 0.01166667, 0.01666667, 0.0
259, 0.01333333, 0.01666667, 0.0
260, 0.01500000, 0.01666667, 0.0
261, 0.01666667, 0.01666667, 0.0
262, 0.01833333, 0.01666667, 0.0
263, 0.02000000, 0.01666667, 0.0
264, 0.02166667, 0.01666667, 0.0
265, 0.02333333, 0.01666667, 0.0
266, 0.02500000, 0.01666667, 0.0
267, 0.02666667, 0.01666667, 0.0
268, 0.02833333, 0.01666667, 0.0
269, 0.03000000, 0.01666667, 0.0
270, 0.03166667, 0.01666667, 0.0
271, 0.03333333, 0.01666667, 0.0
272, 0.03500000, 0.01666667, 0.0
273, 0.03666667, 0.01666667, 0.0
274, 0.03833333, 0.01666667, 0.0
275, 0.04000000, 0.01666667, 0.0
276, 0.00000000, 0.01833333, 0.0
277, 0.00166667, 0.01833333, 0.0
278, 0.00333333, 0.01833333, 0.0
279, 0.00500000, 0.01833333, 0.0
280, 0.00666667, 0.01833333, 0.0
281, 0.00833333, 0.01833333, 0.0
282, 0.01000000, 0.01833333, 0.0
283, 0.01166667, 0.01833333, 0.0
284, 0.01333333, 0.01833333, 0.0
285, 0.01500000, 0.01833333, 0.0
286, 0.01666667, 0.01833333, 0.0
287, 0.01833333, 0.01833333, 0.0
288, 0.02000000, 0.01833333, 0.0
289, 0.02166667, 0.01833333, 0.0
290, 0.02333333, 0.01833333, 0.0
291, 0.02500000, 0.01833333, 0.0
292, 0.02666667, 0.01833333, 0.0
293, 0.02833333, 0.01833333, 0.0
294, 0.03000000, 0.01833333, 0.0
295, 0.03166667, 0.01833333, 0.0
296, 0.03333333, 0.01833333, 0.0
297, 0.03500000, 0.01833333, 0.0
298, 0.03666667, 0.01833333, 0.0
299, 0.03833333, 0.01833333, 0.0
300, 0.04000000, 0.01833333, 0.0
301, 0.00000000, 0.02000000, 0.0
302, 0.00166667, 0.02000000, 0.0
303, 0.00333333, 0.02000000, 0.0
304, 0.00500000, 0.02000000, 0.0
305, 0.00666667, 0.02000000, 0.0
306, 0.00833333, 0.02000000, 0.0
307, 0.01000000, 0.02000000, 0.0
308, 0.01166667, 0.02000000, 0.0
309, 0.01333333, 0.02000000, 0.0
310, 0.01500000, 0.02000000, 0.0
311, 0.01666667, 0.02000000, 0.0
312, 0.01833333, 0.02000000, 0.0
313, 0.02000000, 0.02000000, 0.0
314, 0.02166667, 0.02000000, 0.0
315, 0.02333333, 0.02000000, 0.0
316, 0.02500000, 0.02000000, 0.0
317, 0.02666667, 0.02000000, 0.0
318, 0.02833333, 0.02000000, 0.0
319, 0.03000000, 0.02000000, 0.0
320, 0.03166667, 0.02000000, 0.0
321, 0.03333333, 0.02000000, 0.0
322, 0.03500000, 0.02000000, 0.0
323, 0.03666667, 0.02000000, 0.0
324, 0.03833333, 0.02000000, 0.0
325, 0.04000000, 0.02000000, 0.0
326, 0.00000000, 0.02166667, 0.0
327, 0.00166667, 0.02166667, 0.0
328, 0.00333333, 0.02166667, 0.0
329, 0.00500000, 0.02166667, 0.0
330, 0.00666667, 0.02166667, 0.0
331, 0.00833333, 0.02166667, 0.0
332, 0.01000000, 0.02166667, 0.0
333, 0.01166667, 0.02166667, 0.0
334, 0.01333333, 0.02166667, 0.0
335, 0.01500000, 0.02166667, 0.0
336, 0.01666667, 0.02166667, 0.0
337, 0.01833333, 0.02166667, 0.0
338, 0.02000000, 0.02166667, 0.0
339, 0.02166667, 0.02166667, 0.0
340, 0.02333333, 0.02166667, 0.0
341, 0.02500000, 0.02166667, 0.0
342, 0.02666667, 0.02166667, 0.0
343, 0.02833333, 0.02166667, 0.0
344, 0.03000000, 0.02166667, 0.0
345, 0.03166667, 0.02166667, 0.0
346, 0.03333333, 0.02166667, 0.0
347, 0.03500000, 0.02166667, 0.0
348, 0.03666667, 0.02166667, 0.0
349, 0.03833333, 0.02166667, 0.0
350, 0.04000000, 0.02166667, 0.0
351, 0.00000000, 0.02333333, 0.0
352, 0.00166667, 0.02333333, 0.0
353, 0.00333333, 0.02333333, 0.0
354, 0.00500000, 0.02333333, 0.0
355, 0.00666667, 0.02333333, 0.0
356, 0.00833333, 0.02333333, 0.0
357, 0.01000000, 0.02333333, 0.0
358, 0.01166667, 0.02333333, 0.0
359, 0.01333333, 0.02333333, 0.0
360, 0.01500000, 0.02333333, 0.0
361, 0.01666667, 0.02333333, 0.0
362, 0.01833333, 0.02333333, 0.0
363, 0.02000000, 0.02333333, 0.0
364, 0.02166667, 0.02333333, 0.0
365, 0.02333333, 0.02333333, 0.0
366, 0.02500000, 0.02333333, 0.0
367, 0.02666667, 0.02333333, 0.0
368, 0.02833333, 0.02333333, 0.0
369, 0.03000000, 0.02333333, 0.0
370, 0.03166667, 0.02333333, 0.0
371, 0.03333333, 0.02333333, 0.0
372, 0.03500000, 0.02333333, 0.0
373, 0.03666667, 0.02333333, 0.0
374, 0.03833333, 0.02333333, 0.0
375, 0.04000000, 0.02333333, 0.0
376, 0.00000000, 0.02500000, 0.0
377, 0.00166667, 0.02500000, 0.0
378, 0.00333333, 0.02500000, 0.0
379, 0.00500000, 0.02500000, 0.0
380, 0.00666667, 0.02500000, 0.0
381, 0.00833333, 0.02500000, 0.0
382, 0.01000000, 0.02500000, 0.0
383, 0.01166667, 0.02500000, 0.0
384, 0.01333333, 0.02500000, 0.0
385, 0.01500000, 0.02500000, 0.0
386, 0.01666667, 0.02500000, 0.0
387, 0.01833333, 0.02500000, 0.0
388, 0.02000000, 0.02500000, 0.0
389, 0.02166667, 0.02500000, 0.0
390, 0.02333333, 0.02500000, 0.0
391, 0.02500000, 0.02500000, 0.0
392, 0.02666667, 0.02500000, 0.0
393, 0.02833333, 0.02500000, 0.0
394, 0.03000000, 0.02500000, 0.0
395, 0.03166667, 0.02500000, 0.0
396, 0.03333333, 0.02500000, 0.0
397, 0.03500000, 0.02500000, 0.0
398, 0.03666667, 0.02500000, 0.0
399, 0.03833333, 0.02500000, 0.0
400, 0.04000000, 0.02500000, 0.0
401, 0.00000000, 0.02666667, 0.0
402, 0.00166667, 0.02666667, 0.0
403, 0.00333333, 0.02666667, 0.0
404, 0.00500000, 0.02666667, 0.0
405, 0.00666667, 0.02666667, 0.0
406, 0.00833333, 0.02666667, 0.0
407, 0.01000000, 0.02666667, 0.0
408, 0.01166667, 0.02666667, 0.0
409, 0.01333333, 0.02666667, 0.0
410, 0.01500000, 0.02666667, 0.0
411, 0.01666667, 0.02666667, 0.0
412, 0.01833333, 0.02666667, 0.0
413, 0.02000000, 0.02666667, 0.0
414, 0.02166667, 0.02666667, 0.0
415, 0.02333333, 0.02666667, 0.0
416, 0.02500000, 0.02666667, 0.0
417, 0.02666667, 0.02666667, 0.0
418, 0.02833333, 0.02666667, 0.0
419, 0.03000000, 0.02666667, 0.0
420, 0.03166667, 0.02666667, 0.0
421, 0.03333333, 0.02666667, 0.0
422, 0.03500000, 0.02666667, 0.0
423, 0.03666667, 0.02666667, 0.0
424, 0.03833333, 0.02666667, 0.0
425, 0.04000000, 0.02666667, 0.0
426, 0.00000000, 0.02833333, 0.0
427, 0.00166667, 0.02833333, 0.0
428, 0.00333333, 0.02833333, 0.0
429, 0.00500000, 0.02833333, 0.0
430, 0.00666667, 0.02833333, 0.0
431, 0.00833333, 0.02833333, 0.0
432, 0.01000000, 0.02833333, 0.0
433, 0.01166667, 0.02833333, 0.0
434, 0.01333333, 0.02833333, 0.0
435, 0.01500000, 0.02833333, 0.0
436, 0.01666667, 0.02833333, 0.0
437, 0.01833333, 0.02833333, 0.0
438, 0.02000000, 0.02833333, 0.0
439, 0.02166667, 0.02833333, 0.0
440, 0.02333333, 0.02833333, 0.0
441, 0.02500000, 0.02833333, 0.0
442, 0.02666667, 0.02833333, 0.0
443, 0.02833333, 0.02833333, 0.0
444, 0.03000000, 0.02833333, 0.0
445, 0.03166667, 0.02833333, 0.0
446, 0.03333333, 0.02833333, 0.0
447, 0.03500000, 0.02833333, 0.0
448, 0.03666667, 0.02833333, 0.0
449, 0.03833333, 0.02833333, 0.0
450, 0.04000000, 0.02833333, 0.0
451, 0.00000000, 0.03000000, 0.0
452, 0.00166667, 0.03000000, 0.0
453, 0.00333333, 0.03000000, 0.0
454, 0.00500000, 0.03000000, 0.0
455, 0.00666667, 0.03000000, 0.0
456, 0.00833333, 0.03000000, 0.0
457, 0.01000000, 0.03000000, 0.0
458, 0.01166667, 0.03000000, 0.0
459, 0.01333333, 0.03000000, 0.0
460, 0.01500000, 0.03000000, 0.0
461, 0.01666667, 0.03000000, 0.0
462, 0.01833333, 0.03000000, 0.0
463, 0.02000000, 0.03000000, 0.0
464, 0.02166667, 0.03000000, 0.0
465, 0.02333333, 0.03000000, 0.0
466, 0.02500000, 0.03000000, 0.0
467, 0.02666667, 0.03000000, 0.0
468, 0.02833333, 0.03000000, 0.0
469, 0.03000000, 0.03000000, 0.0
470, 0.03166667, 0.03000000, 0.0
471, 0.03333333, 0.03000000, 0.0
472, 0.03500000, 0.03000000, 0.0
473, 0.03666667, 0.03000000, 0.0
474, 0.03833333, 0.03000000, 0.0
475, 0.04000000, 0.03000000, 0.0
476, 0.00000000, 0.03166667, 0.0
477, 0.00166667, 0.03166667, 0.0
478, 0.00333333, 0.03166667, 0.0
479, 0.00500000, 0.03166667, 0.0
480, 0.00666667, 0.03166667, 0.0
481, 0.00833333, 0.03166667, 0.0
482, 0.01000000, 0.03166667, 0.0
483, 0.01166667, 0.03166667, 0.0
484, 0.01333333, 0.03166667, 0.0
485, 0.01500000, 0.03166667, 0.0
486, 0.01666667, 0.03166667, 0.0
487, 0.01833333, 0.03166667, 0.0
488, 0.02000000, 0.03166667, 0.0
489, 0.02166667, 0.03166667, 0.0
490, 0.02333333, 0.03166667, 0.0
491, 0.02500000, 0.03166667, 0.0
492, 0.02666667, 0.03166667, 0.0
493, 0.02833333, 0.03166667, 0.0
494, 0.03000000, 0.03166667, 0.0
495, 0.03166667, 0.03166667, 0.0
496, 0.03333333, 0.03166667, 0.0
497, 0.03500000, 0.03166667, 0.0
498, 0.03666667, 0.03166667, 0.0
499, 0.03833333, 0.03166667, 0.0
500, 0.04000000, 0.03166667, 0.0
501, 0.00000000, 0.03333333, 0.0
502, 0.00166667, 0.03333333, 0.0
503, 0.00333333, 0.03333333, 0.0
504, 0.00500000, 0.03333333, 0.0
505, 0.00666667, 0.03333333, 0.0
506, 0.00833333, 0.03333333, 0.0
507, 0.01000000, 0.03333333, 0.0
508, 0.01166667, 0.03333333, 0.0
509, 0.01333333, 0.03333333, 0.0
510, 0.01500000, 0.03333333, 0.0
511, 0.01666667, 0.03333333, 0.0
512, 0.01833333, 0.03333333, 0.0
513, 0.02000000, 0.03333333, 0.0
514, 0.02166667, 0.03333333, 0.0
515, 0.02333333, 0.03333333, 0.0
516, 0.02500000, 0.03333333, 0.0
517, 0.02666667, 0.03333333, 0.0
518, 0.02833333, 0.03333333, 0.0
519, 0.03000000, 0.03333333, 0.0
520, 0.03166667, 0.03333333, 0.0
521, 0.03333333, 0.03333333, 0.0
522, 0.03500000, 0.03333333, 0.0
523, 0.03666667, 0.03333333, 0.0
524, 0.03833333, 0.03333333, 0.0
525, 0.04000000, 0.03333333, 0.0
526, 0.00000000, 0.03500000, 0.0
527, 0.00166667, 0.03500000, 0.0
528, 0.00333333, 0.03500000, 0.0
529, 0.00500000, 0.03500000, 0.0
530, 0.00666667, 0.03500000, 0.0
531, 0.00833333, 0.03500000, 0.0
532, 0.01000000, 0.03500000, 0.0
533, 0.01166667, 0.03500000, 0.0
534, 0.01333333, 0.03500000, 0.0
535, 0.01500000, 0.03500000, 0.0
536, 0.01666667, 0.03500000, 0.0
537, 0.01833333, 0.03500000, 0.0
538, 0.02000000, 0.03500000, 0.0
539, 0.02166667, 0.03500000, 0.0
540, 0.02333333, 0.03500000, 0.0
541, 0.02500000, 0.03500000, 0.0
542, 0.02666667, 0.03500000, 0.0
543, 0.02833333, 0.03500000, 0.0
544, 0.03000000, 0.03500000, 0.0
545, 0.03166667, 0.03500000, 0.0
546, 0.03333333, 0.03500000, 0.0
547, 0.03500000, 0.03500000, 0.0
548, 0.03666667, 0.03500000, 0.0
549, 0.03833333, 0.03500000, 0.0
550, 0.04000000, 0.03500000, 0.0
551, 0.00000000, 0.03666667, 0.0
552, 0.00166667, 0.03666667, 0.0
553, 0.00333333, 0.03666667, 0.0
554, 0.00500000, 0.03666667, 0.0
555, 0.00666667, 0.03666667, 0.0
556, 0.00833333, 0.03666667, 0.0
557, 0.01000000, 0.03666667, 0.0
558, 0.01166667, 0.03666667, 0.0
559, 0.01333333, 0.03666667, 0.0
560, 0.01500000, 0.03666667, 0.0
561, 0.01666667, 0.03666667, 0.0
562, 0.01833333, 0.03666667, 0.0
563, 0.02000000, 0.03666667, 0.0
564, 0.02166667, 0.03666667, 0.0
565, 0.02333333, 0.03666667, 0.0
566, 0.02500000, 0.03666667, 0.0
567, 0.02666667, 0.03666667, 0.0
568, 0.02833333, 0.03666667, 0.0
569, 0.03000000, 0.03666667, 0.0
570, 0.03166667, 0.03666667, 0.0
571, 0.03333333, 0.03666667, 0.0
572, 0.03500000, 0.03666667, 0.0
573, 0.03666667, 0.03666667, 0.0
574, 0.03833333, 0.03666667, 0.0
575, 0.04000000, 0.03666667, 0.0
576, 0.00000000, 0.03833333, 0.0
577, 0.00166667, 0.03833333, 0.0
578, 0.00333333, 0.03833333, 0.0
579, 0.00500000, 0.03833333, 0.0
580, 0.00666667, 0.03833333, 0.0
581, 0.00833333, 0.03833333, 0.0
582, 0.01000000, 0.03833333, 0.0
583, 0.01166667, 0.03833333, 0.0
584, 0.01333333, 0.03833333, 0.0
585, 0.01500000, 0.03833333, 0.0
586, 0.01666667, 0.03833333, 0.0
587, 0.01833333, 0.03833333, 0.0
588, 0.02000000, 0.03833333, 0.0
589, 0.02166667, 0.03833333, 0.0
590, 0.02333333, 0.03833333, 0.0
591, 0.02500000, 0.03833333, 0.0
592, 0.02666667, 0.03833333, 0.0
593, 0.02833333, 0.03833333, 0.0
594, 0.03000000, 0.03833333, 0.0
595, 0.03166667, 0.03833333, 0.0
596, 0.03333333, 0.03833333, 0.0
597, 0.03500000, 0.03833333, 0.0
598, 0.03666667, 0.03833333, 0.0
599, 0.03833333, 0.03833333, 0.0
600, 0.04000000, 0.03833333, 0.0
601, 0.00000000, 0.04000000, 0.0
602, 0.00166667, 0.04000000, 0.0
603, 0.00333333, 0.04000000, 0.0
604, 0.00500000, 0.04000000, 0.0
605, 0.00666667, 0.04000000, 0.0
606, 0.00833333, 0.04000000, 0.0
607, 0.01000000, 0.04000000, 0.0
608, 0.01166667, 0.04000000, 0.0
609, 0.01333333, 0.04000000, 0.0
610, 0.01500000, 0.04000000, 0.0
611, 0.01666667, 0.04000000, 0.0
612, 0.01833333, 0.04000000, 0.0
613, 0.02000000, 0.04000000, 0.0
614, 0.02166667, 0.04000000, 0.0
615, 0.02333333, 0.04000000, 0.0
616, 0.02500000, 0.04000000, 0.0
617, 0.02666667, 0.04000000, 0.0
618, 0.02833333, 0.04000000, 0.0
619, 0.03000000, 0.04000000, 0.0
620, 0.03166667, 0.04000000, 0.0
621, 0.03333333, 0.04000000, 0.0
622, 0.03500000, 0.04000000, 0.0
623, 0.03666667, 0.04000000, 0.0
624, 0.03833333, 0.04000000, 0.0
625, 0.04000000, 0.04000000, 0.0
*ELEMENT, TYPE=S4, ELSET=EALL
1, 1, 2, 27, 26
2, 2, 3, 28, 27
3, 3, 4, 29, 28
4, 4, 5, 30, 29
5, 5, 6, 31, 30
6, 6, 7, 32, 31
7, 7, 8, 33, 32
8, 8, 9, 34, 33
9, 9, 10, 35, 34
10, 10, 11, 36, 35
11, 11, 12, 37, 36
12, 12, 13, 38, 37
13, 13, 14, 39, 38
14, 14, 15, 40, 39
15, 15, 16, 41, 40
16, 16, 17, 42, 41
17, 17, 18, 43, 42
18, 18, 19, 44, 43
19, 19, 20, 45, 44
20, 20, 21, 46, 45
21, 21, 22, 47, 46
22, 22, 23, 48, 47
23, 23, 24, 49, 48
24, 24, 25, 50, 49
25, 26, 27, 52, 51
26, 27, 28, 53, 52
27, 28, 29, 54, 53
28, 29, 30, 55, 54
29, 30, 31, 56, 55
30, 31, 32, 57, 56
31, 32, 33, 58, 57
32, 33, 34, 59, 58
33, 34, 35, 60, 59
34, 35, 36, 61, 60
35, 36, 37, 62, 61
36, 37, 38, 63, 62
37, 38, 39, 64, 63
38, 39, 40, 65, 64
39, 40, 41, 66, 65
40, 41, 42, 67, 66
41, 42, 43, 68, 67
42, 43, 44, 69, 68
43, 44, 45, 70, 69
44, 45, 46, 71, 70
45, 46, 47, 72, 71
46, 47, 48, 73, 72
47, 48, 49, 74, 73
48, 49, 50, 75, 74
49, 51, 52, 77, 76
50, 52, 53, 78, 77
51, 53, 54, 79, 78
52, 54, 55, 80, 79
53, 55, 56, 81, 80
54, 56, 57, 82, 81
55, 57, 58, 83, 82
56, 58, 59, 84, 83
57, 59, 60, 85, 84
58, 60, 61, 86, 85
59, 61, 62, 87, 86
60, 62, 63, 88, 87
61, 63, 64, 89, 88
62, 64, 65, 90, 89
63, 65, 66, 91, 90
64, 66, 67, 92, 91
65, 67, 68, 93, 92
66, 68, 69, 94, 93
67, 69, 70, 95, 94
68, 70, 71, 96, 95
69, 71, 72, 97, 96
70, 72, 73, 98, 97
71, 73, 74, 99, 98
72, 74, 75, 100, 99
73, 76, 77, 102, 101
74, 77, 78, 103, 102
75, 78, 79, 104, 103
76, 79, 80, 105, 104
77, 80, 81, 106, 105
78, 81, 82, 107, 106
79, 82, 83, 108, 107
80, 83, 84, 109, 108
81, 84, 85, 110, 109
82, 85, 86, 111, 110
83, 86, 87, 112, 111
84, 87, 88, 113, 112
85, 88, 89, 114, 113
86, 89, 90, 115, 114
87, 90, 91, 116, 115
88, 91, 92, 117, 116
89, 92, 93, 118, 117
90, 93, 94, 119, 118
91, 94, 95, 120, 119
92, 95, 96, 121, 120
93, 96, 97, 122, 121
94, 97, 98, 123, 122
95, 98, 99, 124, 123
96, 99, 100, 125, 124
97, 101, 102, 127, 126
98, 102, 103, 128, 127
99, 103, 104, 129, 128
100, 104, 105, 130, 129
101, 105, 106, 131, 130
102, 106, 107, 132, 131
103, 107, 108, 133, 132
104, 108, 109, 134, 133
105, 109, 110, 135, 134
106, 110, 111, 136, 135
107, 111, 112, 137, 136
108, 112, 113, 138, 137
109, 113, 114, 139, 138
110, 114, 115, 140, 139
111, 115, 116, 141, 140
112, 116, 117, 142, 141
113, 117, 118, 143, 142
114, 118, 119, 144, 143
115, 119, 120, 145, 144
116, 120, 121, 146, 145
117, 121, 122, 147, 146
118, 122, 123, 148, 147
119, 123, 124, 149, 148
120, 124, 125, 150, 149
121, 126, 127, 152, 151
122, 127, 128, 153, 152
123, 128, 129, 154, 153
124, 129, 130, 155, 154
125, 130, 131, 156, 155
126, 131, 132, 157, 156
127, 132, 133, 158, 157
128, 133, 134, 159, 158
129, 134, 135, 160, 159
130, 135, 136, 161, 160
131, 136, 137, 162, 161
132, 137, 138, 163, 162
133, 138, 139, 164, 163
134, 139, 140, 165, 164
135, 140, 141, 166, 165
136, 141, 142, 167, 166
137, 142, 143, 168, 167
138, 143, 144, 169, 168
139, 144, 145, 170, 169
140, 145, 146, 171, 170
141, 146, 147, 172, 171
142, 147, 148, 173, 172
143, 148, 149, 174, 173
144, 149, 150, 175, 174
145, 151, 152, 177, 176
146, 152, 153, 178, 177
147, 153, 154, 179, 178
148, 154, 155, 180, 179
149, 155, 156, 181, 180
150, 156, 157, 182, 181
151, 157, 158, 183, 182
152, 158, 159, 184, 183
153, 159, 160, 185, 184
154, 160, 161, 186, 185
155, 161, 162, 187, 186
156, 162, 163, 188, 187
157, 163, 164, 189, 188
158, 164, 165, 190, 189
159, 165, 166, 191, 190
160, 166, 167, 192, 191
161, 167, 168, 193, 192
162, 168, 169, 194, 193
163, 169, 170, 195, 194
164, 170, 171, 196, 195
165, 171, 172, 197, 196
166, 172, 173, 198, 197
167, 173, 174, 199, 198
168, 174, 175, 200, 199
169, 176, 177, 202, 201
170, 177, 178, 203, 202
171, 178, 179, 204, 203
172, 179, 180, 205, 204
173, 180, 181, 206, 205
174, 181, 182, 207, 206
175, 182, 183, 208, 207
176, 183, 184, 209, 208
177, 184, 185, 210, 209
178, 185, 186, 211, 210
179, 186, 187, 212, 211
180, 187, 188, 213, 212
181, 188, 189, 214, 213
182, 189, 190, 215, 214
183, 190, 191, 216, 215
184, 191, 192, 217, 216
185, 192, 193, 218, 217
186, 193, 194, 219, 218
187, 194, 195, 220, 219
188, 195, 196, 221, 220
189, 196, 197, 222, 221
190, 197, 198, 223, 222
191, 198, 199, 224, 223
192, 199, 200, 225, 224
193, 201, 202, 227, 226
194, 202, 203, 228, 227
195, 203, 204, 229, 228
196, 204, 205, 230, 229
197, 205, 206, 231, 230
198, 206, 207, 232, 231
199, 207, 208, 233, 232
200, 208, 209, 234, 233
201, 209, 210, 235, 234
202, 210, 211, 236, 235
203, 211, 212, 237, 236
204, 212, 213, 238, 237
205, 213, 214, 239, 238
206, 214, 215, 240, 239
207, 215, 216, 241, 240
208, 216, 217, 242, 241
209, 217, 218, 243, 242
210, 218, 219, 244, 243
211, 219, 220, 245, 244
212, 220, 221, 246, 245
213, 221, 222, 247, 246
214, 222, 223, 248, 247
215, 223, 224, 249, 248
216, 224, 225, 250, 249
217, 226, 227, 252, 251
218, 227, 228, 253, 252
219, 228, 229, 254, 253
220, 229, 230, 255, 254
221, 230, 231, 256, 255
222, 231, 232, 257, 256
223, 232, 233, 258, 257
224, 233, 234, 259, 258
225, 234, 235, 260, 259
226, 235, 236, 261, 260
227, 236, 237, 262, 261
228, 237, 238, 263, 262
229, 238, 239, 264, 263
230, 239, 240, 265, 264
231, 240, 241, 266, 265
232, 241, 242, 267, 266
233, 242, 243, 268, 267
234, 243, 244, 269, 268
235, 244, 245, 270, 269
236, 245, 246, 271, 270
237, 246, 247, 272, 271
238, 247, 248, 273, 272
239, 248, 249, 274, 273
240, 249, 250, 275, 274
241, 251, 252, 277, 276
242, 252, 253, 278, 277
243, 253, 254, 279, 278
244, 254, 255, 280, 279
245, 255, 256, 281, 280
246, 256, 257, 282, 281
247, 257, 258, 283, 282
248, 258, 259, 284, 283
249, 259, 260, 285, 284
250, 260, 261, 286, 285
251, 261, 262, 287, 286
252, 262, 263, 288, 287
253, 263, 264, 289, 288
254, 264, 265, 290, 289
255, 265, 266, 291, 290
256, 266, 267, 292, 291
257, 267, 268, 293, 292
258, 268, 269, 294, 293
259, 269, 270, 295, 294
260, 270, 271, 296, 295
261, 271, 272, 297, 296
262, 272, 273, 298, 297
263, 273, 274, 299, 298
264, 274, 275, 300, 299
265, 276, 277, 302, 301
266, 277, 278, 303, 302
267, 278, 279, 304, 303
268, 279, 280, 305, 304
269, 280, 281, 306, 305
270, 281, 282, 307, 306
271, 282, 283, 308, 307
272, 283, 284, 309, 308
273, 284, 285, 310, 309
274, 285, 286, 311, 310
275, 286, 287, 312, 311
276, 287, 288, 313, 312
277, 288, 289, 314, 313
278, 289, 290, 315, 314
279, 290, 291, 316, 315
280, 291, 292, 317, 316
281, 292, 293, 318, 317
282, 293, 294, 319, 318
283, 294, 295, 320, 319
284, 295, 296, 321, 320
285, 296, 297, 322, 321
286, 297, 298, 323, 322
287, 298, 299, 324, 323
288, 299, 300, 325, 324
289, 301, 302, 327, 326
290, 302, 303, 328, 327
291, 303, 304, 329, 328
292, 304, 305, 330, 329
293, 305, 306, 331, 330
294, 306, 307, 332, 331
295, 307, 308, 333, 332
296, 308, 309, 334, 333
297, 309, 310, 335, 334
298, 310, 311, 336, 335
299, 311, 312, 337, 336
300, 312, 313, 338, 337
301, 313, 314, 339, 338
302, 314, 315, 340, 339
303, 315, 316, 341, 340
304, 316, 317, 342, 341
305, 317, 318, 343, 342
306, 318, 319, 344, 343
307, 319, 320, 345, 344
308, 320, 321, 346, 345
309, 321, 322, 347, 346
310, 322, 323, 348, 347
311, 323, 324, 349, 348
312, 324, 325, 350, 349
313, 326, 327, 352, 351
314, 327, 328, 353, 352
315, 328, 329, 354, 353
316, 329, 330, 355, 354
317, 330, 331, 356, 355
318, 331, 332, 357, 356
319, 332, 333, 358, 357
320, 333, 334, 359, 358
321, 334, 335, 360, 359
322, 335, 336, 361, 360
323, 336, 337, 362, 361
324, 337, 338, 363, 362
325, 338, 339, 364, 363
326, 339, 340, 365, 364
327, 340, 341, 366, 365
328, 341, 342, 367, 366
329, 342, 343, 368, 367
330, 343, 344, 369, 368
331, 344, 345, 370, 369
332, 345, 346, 371, 370
333, 346, 347, 372, 371
334, 347, 348, 373, 372
335, 348, 349, 374, 373
336, 349, 350, 375, 374
337, 351, 352, 377, 376
338, 352, 353, 378, 377
339, 353, 354, 379, 378
340, 354, 355, 380, 379
341, 355, 356, 381, 380
342, 356, 357, 382, 381
343, 357, 358, 383, 382
344, 358, 359, 384, 383
345, 359, 360, 385, 384
346, 360, 361, 386, 385
347, 361, 362, 387, 386
348, 362, 363, 388, 387
349, 363, 364, 389, 388
350, 364, 365, 390, 389
351, 365, 366, 391, 390
352, 366, 367, 392, 391
353, 367, 368, 393, 392
354, 368, 369, 394, 393
355, 369, 370, 395, 394
356, 370, 371, 396, 395
357, 371, 372, 397, 396
358, 372, 373, 398, 397
359, 373, 374, 399, 398
360, 374, 375, 400, 399
361, 376, 377, 402, 401
362, 377, 378, 403, 402
363, 378, 379, 404, 403
364, 379, 380, 405, 404
365, 380, 381, 406, 405
366, 381, 382, 407, 406
367, 382, 383, 408, 407
368, 383, 384, 409, 408
369, 384, 385, 410, 409
370, 385, 386, 411, 410
371, 386, 387, 412, 411
372, 387, 388, 413, 412
373, 388, 389, 414, 413
374, 389, 390, 415, 414
375, 390, 391, 416, 415
376, 391, 392, 417, 416
377, 392, 393, 418, 417
378, 393, 394, 419, 418
379, 394, 395, 420, 419
380, 395, 396, 421, 420
381, 396, 397, 422, 421
382, 397, 398, 423, 422
383, 398, 399, 424, 423
384, 399, 400, 425, 424
385, 401, 402, 427, 426
386, 402, 403, 428, 427
387, 403, 404, 429, 428
388, 404, 405, 430, 429
389, 405, 406, 431, 430
390, 406, 407, 432, 431
391, 407, 408, 433, 432
392, 408, 409, 434, 433
393, 409, 410, 435, 434
394, 410, 411, 436, 435
395, 411, 412, 437, 436
396, 412, 413, 438, 437
397, 413, 414, 439, 438
398, 414, 415, 440, 439
399, 415, 416, 441, 440
400, 416, 417, 442, 441
401, 417, 418, 443, 442
402, 418, 419, 444, 443
403, 419, 420, 445, 444
404, 420, 421, 446, 445
405, 421, 422, 447, 446
406, 422, 423, 448, 447
407, 423, 424, 449, 448
408, 424, 425, 450, 449
409, 426, 427, 452, 451
410, 427, 428, 453, 452
411, 428, 429, 454, 453
412, 429, 430, 455, 454
413, 430, 431, 456, 455
414, 431, 432, 457, 456
415, 432, 433, 458, 457
416, 433, 434, 459, 458
417, 434, 435, 460, 459
418, 435, 436, 461, 460
419, 436, 437, 462, 461
420, 437, 438, 463, 462
421, 438, 439, 464, 463
422, 439, 440, 465, 464
423, 440, 441, 466, 465
424, 441, 442, 467, 466
425, 442, 443, 468, 467
426, 443, 444, 469, 468
427, 444, 445, 470, 469
428, 445, 446, 471, 470
429, 446, 447, 472, 471
430, 447, 448, 473, 472
431, 448, 449, 474, 473
432, 449, 450, 475, 474
433, 451, 452, 477, 476
434, 452, 453, 478, 477
435, 453, 454, 479, 478
436, 454, 455, 480, 479
437, 455, 456, 481, 480
438, 456, 457, 482, 481
439, 457, 458, 483, 482
440, 458, 459, 484, 483
441, 459, 460, 485, 484
442, 460, 461, 486, 485
443, 461, 462, 487, 486
444, 462, 463, 488, 487
445, 463, 464, 489, 488
446, 464, 465, 490, 489
447, 465, 466, 491, 490
448, 466, 467, 492, 491
449, 467, 468, 493, 492
450, 468, 469, 494, 493
451, 469, 470, 495, 494
452, 470, 471, 496, 495
453, 471, 472, 497, 496
454, 472, 473, 498, 497
455, 473, 474, 499, 498
456, 474, 475, 500, 499
457, 476, 477, 502, 501
458, 477, 478, 503, 502
459, 478, 479, 504, 503
460, 479, 480, 505, 504
461, 480, 481, 506, 505
462, 481, 482, 507, 506
463, 482, 483, 508, 507
464, 483, 484, 509, 508
465, 484, 485, 510, 509
466, 485, 486, 511, 510
467, 486, 487, 512, 511
468, 487, 488, 513, 512
469, 488, 489, 514, 513
470, 489, 490, 515, 514
471, 490, 491, 516, 515
472, 491, 492, 517, 516
473, 492, 493, 518, 517
474, 493, 494, 519, 518
475, 494, 495, 520, 519
476, 495, 496, 521, 520
477, 496, 497, 522, 521
478, 497, 498, 523, 522
479, 498, 499, 524, 523
480, 499, 500, 525, 524
481, 501, 502, 527, 526
482, 502, 503, 528, 527
483, 503, 504, 529, 528
484, 504, 505, 530, 529
485, 505, 506, 531, 530
486, 506, 507, 532, 531
487, 507, 508, 533, 532
488, 508, 509, 534, 533
489, 509, 510, 535, 534
490, 510, 511, 536, 535
491, 511, 512, 537, 536
492, 512, 513, 538, 537
493, 513, 514, 539, 538
494, 514, 515, 540, 539
495, 515, 516, 541, 540
496, 516, 517, 542, 541
497, 517, 518, 543, 542
498, 518, 519, 544, 543
499, 519, 520, 545, 544
500, 520, 521, 546, 545
501, 521, 522, 547, 546
502, 522, 523, 548, 547
503, 523, 524, 549, 548
504, 524, 525, 550, 549
505, 526, 527, 552, 551
506, 527, 528, 553, 552
507, 528, 529, 554, 553
508, 529, 530, 555, 554
509, 530, 531, 556, 555
510, 531, 532, 557, 556
511, 532, 533, 558, 557
512, 533, 534, 559, 558
513, 534, 535, 560, 559
514, 535, 536, 561, 560
515, 536, 537, 562, 561
516, 537, 538, 563, 562
517, 538, 539, 564, 563
518, 539, 540, 565, 564
519, 540, 541, 566, 565
520, 541, 542, 567, 566
521, 542, 543, 568, 567
522, 543, 544, 569, 568
523, 544, 545, 570, 569
524, 545, 546, 571, 570
525, 546, 547, 572, 571
526, 547, 548, 573, 572
527, 548, 549, 574, 573
528, 549, 550, 575, 574
529, 551, 552, 577, 576
530, 552, 553, 578, 577
531, 553, 554, 579, 578
532, 554, 555, 580, 579
533, 555, 556, 581, 580
534, 556, 557, 582, 581
535, 557, 558, 583, 582
536, 558, 559, 584, 583
537, 559, 560, 585, 584
538, 560, 561, 586, 585
539, 561, 562, 587, 586
540, 562, 563, 588, 587
541, 563, 564, 589, 588
542, 564, 565, 590, 589
543, 565, 566, 591, 590
544, 566, 567, 592, 591
545, 567, 568, 593, 592
546, 568, 569, 594, 593
547, 569, 570, 595, 594
548, 570, 571, 596, 595
549, 571, 572, 597, 596
550, 572, 573, 598, 597
551, 573, 574, 599, 598
552, 574, 575, 600, 599
553, 576, 577, 602, 601
554, 577, 578, 603, 602
555, 578, 579, 604, 603
556, 579, 580, 605, 604
557, 580, 581, 606, 605
558, 581, 582, 607, 606
559, 582, 583, 608, 607
560, 583, 584, 609, 608
561, 584, 585, 610, 609
562, 585, 586, 611, 610
563, 586, 587, 612, 611
564, 587, 588, 613, 612
565, 588, 589, 614, 613
566, 589, 590, 615, 614
567, 590, 591, 616, 615
568, 591, 592, 617, 616
569, 592, 593, 618, 617
570, 593, 594, 619, 618
571, 594, 595, 620, 619
572, 595, 596, 621, 620
573, 596, 597, 622, 621
574, 597, 598, 623, 622
575, 598, 599, 624, 623
576, 599, 600, 625, 624
*ELEMENT, TYPE=MASS, ELSET=CM
1576, 1
*MASS, ELSET=CM
50,
*NSET, NSET=NA
1
*NSET, NSET=NM
313
*NSET, NSET=NQ
457
*NSET, NSET=NBC
25, 50, 75, 100, 125, 150, 175, 200, 225, 250, 275, 300
325, 350, 375, 400, 425, 450, 475, 500, 525, 550, 575, 600
625
*NSET, NSET=NCD
601, 602, 603, 604, 605, 606, 607, 608, 609, 610, 611, 612
613, 614, 615, 616, 617, 618, 619, 620, 621, 622, 623, 624
625
*ELSET, ELSET=PATCHM
276, 277, 300, 301
*ELSET, ELSET=PATCHQ
414, 415, 438, 439
**
*SHELL GENERAL SECTION, ELSET=EALL, DENSITY=16
8.987482e+08, 1.729326e+07, 8.987482e+08, 5.241557e-10, 5.027267e-08, 3.450000e+07, 2.073938e+06, -5.358313e-12
-1.310389e-12, 7.489568e+03, 2.030132e-11, -2.073938e+06, -1.256817e-10, 1.441105e+02, 7.489568e+03, -1.310389e-12
-1.256817e-10, -9.583969e-12, 4.367964e-15, 4.189389e-13, 2.875000e+02
*TRANSVERSE SHEAR STIFFNESS
1.485769e+07, 1.485769e+07, -7.424535e-08
**
*BOUNDARY
NBC, 1, 6
NCD, 1, 6
**
*AMPLITUDE, NAME=TRI
0., 0., 0.001, 1., 0.002, 0., 1., 0.
**
*STEP, NAME=IMPULSE, INC=2000
*DYNAMIC
0.0001, 0.05, 1e-08, 0.0001
*CLOAD, AMPLITUDE=TRI
1, 3, -10000
*OUTPUT, FIELD, FREQUENCY=10
*ELEMENT OUTPUT
SF, SM
*NODE OUTPUT
U
*NODE PRINT, NSET=NM, FREQUENCY=1
U
*NODE PRINT, NSET=NA, FREQUENCY=1
U
*EL PRINT, ELSET=PATCHM, FREQUENCY=1
SF, SM
*EL PRINT, ELSET=PATCHM, FREQUENCY=1
COORD
*EL PRINT, ELSET=PATCHQ, FREQUENCY=1
SF, SM
*EL PRINT, ELSET=PATCHQ, FREQUENCY=1
COORD
*END STEP
