*HEADING
OpenSG-RM static cylindrical bending, garg_caseC
*NODE
1, 0.00000000, 0.00000000, 0.0
2, 0.01250000, 0.00000000, 0.0
3, 0.02500000, 0.00000000, 0.0
4, 0.03750000, 0.00000000, 0.0
5, 0.05000000, 0.00000000, 0.0
6, 0.06250000, 0.00000000, 0.0
7, 0.07500000, 0.00000000, 0.0
8, 0.08750000, 0.00000000, 0.0
9, 0.10000000, 0.00000000, 0.0
10, 0.11250000, 0.00000000, 0.0
11, 0.12500000, 0.00000000, 0.0
12, 0.13750000, 0.00000000, 0.0
13, 0.15000000, 0.00000000, 0.0
14, 0.16250000, 0.00000000, 0.0
15, 0.17500000, 0.00000000, 0.0
16, 0.18750000, 0.00000000, 0.0
17, 0.20000000, 0.00000000, 0.0
18, 0.21250000, 0.00000000, 0.0
19, 0.22500000, 0.00000000, 0.0
20, 0.23750000, 0.00000000, 0.0
21, 0.25000000, 0.00000000, 0.0
22, 0.26250000, 0.00000000, 0.0
23, 0.27500000, 0.00000000, 0.0
24, 0.28750000, 0.00000000, 0.0
25, 0.30000000, 0.00000000, 0.0
26, 0.31250000, 0.00000000, 0.0
27, 0.32500000, 0.00000000, 0.0
28, 0.33750000, 0.00000000, 0.0
29, 0.35000000, 0.00000000, 0.0
30, 0.36250000, 0.00000000, 0.0
31, 0.37500000, 0.00000000, 0.0
32, 0.38750000, 0.00000000, 0.0
33, 0.40000000, 0.00000000, 0.0
34, 0.41250000, 0.00000000, 0.0
35, 0.42500000, 0.00000000, 0.0
36, 0.43750000, 0.00000000, 0.0
37, 0.45000000, 0.00000000, 0.0
38, 0.46250000, 0.00000000, 0.0
39, 0.47500000, 0.00000000, 0.0
40, 0.48750000, 0.00000000, 0.0
41, 0.50000000, 0.00000000, 0.0
42, 0.51250000, 0.00000000, 0.0
43, 0.52500000, 0.00000000, 0.0
44, 0.53750000, 0.00000000, 0.0
45, 0.55000000, 0.00000000, 0.0
46, 0.56250000, 0.00000000, 0.0
47, 0.57500000, 0.00000000, 0.0
48, 0.58750000, 0.00000000, 0.0
49, 0.60000000, 0.00000000, 0.0
50, 0.61250000, 0.00000000, 0.0
51, 0.62500000, 0.00000000, 0.0
52, 0.63750000, 0.00000000, 0.0
53, 0.65000000, 0.00000000, 0.0
54, 0.66250000, 0.00000000, 0.0
55, 0.67500000, 0.00000000, 0.0
56, 0.68750000, 0.00000000, 0.0
57, 0.70000000, 0.00000000, 0.0
58, 0.71250000, 0.00000000, 0.0
59, 0.72500000, 0.00000000, 0.0
60, 0.73750000, 0.00000000, 0.0
61, 0.75000000, 0.00000000, 0.0
62, 0.76250000, 0.00000000, 0.0
63, 0.77500000, 0.00000000, 0.0
64, 0.78750000, 0.00000000, 0.0
65, 0.80000000, 0.00000000, 0.0
66, 0.81250000, 0.00000000, 0.0
67, 0.82500000, 0.00000000, 0.0
68, 0.83750000, 0.00000000, 0.0
69, 0.85000000, 0.00000000, 0.0
70, 0.86250000, 0.00000000, 0.0
71, 0.87500000, 0.00000000, 0.0
72, 0.88750000, 0.00000000, 0.0
73, 0.90000000, 0.00000000, 0.0
74, 0.91250000, 0.00000000, 0.0
75, 0.92500000, 0.00000000, 0.0
76, 0.93750000, 0.00000000, 0.0
77, 0.95000000, 0.00000000, 0.0
78, 0.96250000, 0.00000000, 0.0
79, 0.97500000, 0.00000000, 0.0
80, 0.98750000, 0.00000000, 0.0
81, 1.00000000, 0.00000000, 0.0
82, 0.00000000, 0.01250000, 0.0
83, 0.02500000, 0.01250000, 0.0
84, 0.05000000, 0.01250000, 0.0
85, 0.07500000, 0.01250000, 0.0
86, 0.10000000, 0.01250000, 0.0
87, 0.12500000, 0.01250000, 0.0
88, 0.15000000, 0.01250000, 0.0
89, 0.17500000, 0.01250000, 0.0
90, 0.20000000, 0.01250000, 0.0
91, 0.22500000, 0.01250000, 0.0
92, 0.25000000, 0.01250000, 0.0
93, 0.27500000, 0.01250000, 0.0
94, 0.30000000, 0.01250000, 0.0
95, 0.32500000, 0.01250000, 0.0
96, 0.35000000, 0.01250000, 0.0
97, 0.37500000, 0.01250000, 0.0
98, 0.40000000, 0.01250000, 0.0
99, 0.42500000, 0.01250000, 0.0
100, 0.45000000, 0.01250000, 0.0
101, 0.47500000, 0.01250000, 0.0
102, 0.50000000, 0.01250000, 0.0
103, 0.52500000, 0.01250000, 0.0
104, 0.55000000, 0.01250000, 0.0
105, 0.57500000, 0.01250000, 0.0
106, 0.60000000, 0.01250000, 0.0
107, 0.62500000, 0.01250000, 0.0
108, 0.65000000, 0.01250000, 0.0
109, 0.67500000, 0.01250000, 0.0
110, 0.70000000, 0.01250000, 0.0
111, 0.72500000, 0.01250000, 0.0
112, 0.75000000, 0.01250000, 0.0
113, 0.77500000, 0.01250000, 0.0
114, 0.80000000, 0.01250000, 0.0
115, 0.82500000, 0.01250000, 0.0
116, 0.85000000, 0.01250000, 0.0
117, 0.87500000, 0.01250000, 0.0
118, 0.90000000, 0.01250000, 0.0
119, 0.92500000, 0.01250000, 0.0
120, 0.95000000, 0.01250000, 0.0
121, 0.97500000, 0.01250000, 0.0
122, 1.00000000, 0.01250000, 0.0
123, 0.00000000, 0.02500000, 0.0
124, 0.01250000, 0.02500000, 0.0
125, 0.02500000, 0.02500000, 0.0
126, 0.03750000, 0.02500000, 0.0
127, 0.05000000, 0.02500000, 0.0
128, 0.06250000, 0.02500000, 0.0
129, 0.07500000, 0.02500000, 0.0
130, 0.08750000, 0.02500000, 0.0
131, 0.10000000, 0.02500000, 0.0
132, 0.11250000, 0.02500000, 0.0
133, 0.12500000, 0.02500000, 0.0
134, 0.13750000, 0.02500000, 0.0
135, 0.15000000, 0.02500000, 0.0
136, 0.16250000, 0.02500000, 0.0
137, 0.17500000, 0.02500000, 0.0
138, 0.18750000, 0.02500000, 0.0
139, 0.20000000, 0.02500000, 0.0
140, 0.21250000, 0.02500000, 0.0
141, 0.22500000, 0.02500000, 0.0
142, 0.23750000, 0.02500000, 0.0
143, 0.25000000, 0.02500000, 0.0
144, 0.26250000, 0.02500000, 0.0
145, 0.27500000, 0.02500000, 0.0
146, 0.28750000, 0.02500000, 0.0
147, 0.30000000, 0.02500000, 0.0
148, 0.31250000, 0.02500000, 0.0
149, 0.32500000, 0.02500000, 0.0
150, 0.33750000, 0.02500000, 0.0
151, 0.35000000, 0.02500000, 0.0
152, 0.36250000, 0.02500000, 0.0
153, 0.37500000, 0.02500000, 0.0
154, 0.38750000, 0.02500000, 0.0
155, 0.40000000, 0.02500000, 0.0
156, 0.41250000, 0.02500000, 0.0
157, 0.42500000, 0.02500000, 0.0
158, 0.43750000, 0.02500000, 0.0
159, 0.45000000, 0.02500000, 0.0
160, 0.46250000, 0.02500000, 0.0
161, 0.47500000, 0.02500000, 0.0
162, 0.48750000, 0.02500000, 0.0
163, 0.50000000, 0.02500000, 0.0
164, 0.51250000, 0.02500000, 0.0
165, 0.52500000, 0.02500000, 0.0
166, 0.53750000, 0.02500000, 0.0
167, 0.55000000, 0.02500000, 0.0
168, 0.56250000, 0.02500000, 0.0
169, 0.57500000, 0.02500000, 0.0
170, 0.58750000, 0.02500000, 0.0
171, 0.60000000, 0.02500000, 0.0
172, 0.61250000, 0.02500000, 0.0
173, 0.62500000, 0.02500000, 0.0
174, 0.63750000, 0.02500000, 0.0
175, 0.65000000, 0.02500000, 0.0
176, 0.66250000, 0.02500000, 0.0
177, 0.67500000, 0.02500000, 0.0
178, 0.68750000, 0.02500000, 0.0
179, 0.70000000, 0.02500000, 0.0
180, 0.71250000, 0.02500000, 0.0
181, 0.72500000, 0.02500000, 0.0
182, 0.73750000, 0.02500000, 0.0
183, 0.75000000, 0.02500000, 0.0
184, 0.76250000, 0.02500000, 0.0
185, 0.77500000, 0.02500000, 0.0
186, 0.78750000, 0.02500000, 0.0
187, 0.80000000, 0.02500000, 0.0
188, 0.81250000, 0.02500000, 0.0
189, 0.82500000, 0.02500000, 0.0
190, 0.83750000, 0.02500000, 0.0
191, 0.85000000, 0.02500000, 0.0
192, 0.86250000, 0.02500000, 0.0
193, 0.87500000, 0.02500000, 0.0
194, 0.88750000, 0.02500000, 0.0
195, 0.90000000, 0.02500000, 0.0
196, 0.91250000, 0.02500000, 0.0
197, 0.92500000, 0.02500000, 0.0
198, 0.93750000, 0.02500000, 0.0
199, 0.95000000, 0.02500000, 0.0
200, 0.96250000, 0.02500000, 0.0
201, 0.97500000, 0.02500000, 0.0
202, 0.98750000, 0.02500000, 0.0
203, 1.00000000, 0.02500000, 0.0
204, 0.00000000, 0.03750000, 0.0
205, 0.02500000, 0.03750000, 0.0
206, 0.05000000, 0.03750000, 0.0
207, 0.07500000, 0.03750000, 0.0
208, 0.10000000, 0.03750000, 0.0
209, 0.12500000, 0.03750000, 0.0
210, 0.15000000, 0.03750000, 0.0
211, 0.17500000, 0.03750000, 0.0
212, 0.20000000, 0.03750000, 0.0
213, 0.22500000, 0.03750000, 0.0
214, 0.25000000, 0.03750000, 0.0
215, 0.27500000, 0.03750000, 0.0
216, 0.30000000, 0.03750000, 0.0
217, 0.32500000, 0.03750000, 0.0
218, 0.35000000, 0.03750000, 0.0
219, 0.37500000, 0.03750000, 0.0
220, 0.40000000, 0.03750000, 0.0
221, 0.42500000, 0.03750000, 0.0
222, 0.45000000, 0.03750000, 0.0
223, 0.47500000, 0.03750000, 0.0
224, 0.50000000, 0.03750000, 0.0
225, 0.52500000, 0.03750000, 0.0
226, 0.55000000, 0.03750000, 0.0
227, 0.57500000, 0.03750000, 0.0
228, 0.60000000, 0.03750000, 0.0
229, 0.62500000, 0.03750000, 0.0
230, 0.65000000, 0.03750000, 0.0
231, 0.67500000, 0.03750000, 0.0
232, 0.70000000, 0.03750000, 0.0
233, 0.72500000, 0.03750000, 0.0
234, 0.75000000, 0.03750000, 0.0
235, 0.77500000, 0.03750000, 0.0
236, 0.80000000, 0.03750000, 0.0
237, 0.82500000, 0.03750000, 0.0
238, 0.85000000, 0.03750000, 0.0
239, 0.87500000, 0.03750000, 0.0
240, 0.90000000, 0.03750000, 0.0
241, 0.92500000, 0.03750000, 0.0
242, 0.95000000, 0.03750000, 0.0
243, 0.97500000, 0.03750000, 0.0
244, 1.00000000, 0.03750000, 0.0
245, 0.00000000, 0.05000000, 0.0
246, 0.01250000, 0.05000000, 0.0
247, 0.02500000, 0.05000000, 0.0
248, 0.03750000, 0.05000000, 0.0
249, 0.05000000, 0.05000000, 0.0
250, 0.06250000, 0.05000000, 0.0
251, 0.07500000, 0.05000000, 0.0
252, 0.08750000, 0.05000000, 0.0
253, 0.10000000, 0.05000000, 0.0
254, 0.11250000, 0.05000000, 0.0
255, 0.12500000, 0.05000000, 0.0
256, 0.13750000, 0.05000000, 0.0
257, 0.15000000, 0.05000000, 0.0
258, 0.16250000, 0.05000000, 0.0
259, 0.17500000, 0.05000000, 0.0
260, 0.18750000, 0.05000000, 0.0
261, 0.20000000, 0.05000000, 0.0
262, 0.21250000, 0.05000000, 0.0
263, 0.22500000, 0.05000000, 0.0
264, 0.23750000, 0.05000000, 0.0
265, 0.25000000, 0.05000000, 0.0
266, 0.26250000, 0.05000000, 0.0
267, 0.27500000, 0.05000000, 0.0
268, 0.28750000, 0.05000000, 0.0
269, 0.30000000, 0.05000000, 0.0
270, 0.31250000, 0.05000000, 0.0
271, 0.32500000, 0.05000000, 0.0
272, 0.33750000, 0.05000000, 0.0
273, 0.35000000, 0.05000000, 0.0
274, 0.36250000, 0.05000000, 0.0
275, 0.37500000, 0.05000000, 0.0
276, 0.38750000, 0.05000000, 0.0
277, 0.40000000, 0.05000000, 0.0
278, 0.41250000, 0.05000000, 0.0
279, 0.42500000, 0.05000000, 0.0
280, 0.43750000, 0.05000000, 0.0
281, 0.45000000, 0.05000000, 0.0
282, 0.46250000, 0.05000000, 0.0
283, 0.47500000, 0.05000000, 0.0
284, 0.48750000, 0.05000000, 0.0
285, 0.50000000, 0.05000000, 0.0
286, 0.51250000, 0.05000000, 0.0
287, 0.52500000, 0.05000000, 0.0
288, 0.53750000, 0.05000000, 0.0
289, 0.55000000, 0.05000000, 0.0
290, 0.56250000, 0.05000000, 0.0
291, 0.57500000, 0.05000000, 0.0
292, 0.58750000, 0.05000000, 0.0
293, 0.60000000, 0.05000000, 0.0
294, 0.61250000, 0.05000000, 0.0
295, 0.62500000, 0.05000000, 0.0
296, 0.63750000, 0.05000000, 0.0
297, 0.65000000, 0.05000000, 0.0
298, 0.66250000, 0.05000000, 0.0
299, 0.67500000, 0.05000000, 0.0
300, 0.68750000, 0.05000000, 0.0
301, 0.70000000, 0.05000000, 0.0
302, 0.71250000, 0.05000000, 0.0
303, 0.72500000, 0.05000000, 0.0
304, 0.73750000, 0.05000000, 0.0
305, 0.75000000, 0.05000000, 0.0
306, 0.76250000, 0.05000000, 0.0
307, 0.77500000, 0.05000000, 0.0
308, 0.78750000, 0.05000000, 0.0
309, 0.80000000, 0.05000000, 0.0
310, 0.81250000, 0.05000000, 0.0
311, 0.82500000, 0.05000000, 0.0
312, 0.83750000, 0.05000000, 0.0
313, 0.85000000, 0.05000000, 0.0
314, 0.86250000, 0.05000000, 0.0
315, 0.87500000, 0.05000000, 0.0
316, 0.88750000, 0.05000000, 0.0
317, 0.90000000, 0.05000000, 0.0
318, 0.91250000, 0.05000000, 0.0
319, 0.92500000, 0.05000000, 0.0
320, 0.93750000, 0.05000000, 0.0
321, 0.95000000, 0.05000000, 0.0
322, 0.96250000, 0.05000000, 0.0
323, 0.97500000, 0.05000000, 0.0
324, 0.98750000, 0.05000000, 0.0
325, 1.00000000, 0.05000000, 0.0
326, 0.00000000, 0.06250000, 0.0
327, 0.02500000, 0.06250000, 0.0
328, 0.05000000, 0.06250000, 0.0
329, 0.07500000, 0.06250000, 0.0
330, 0.10000000, 0.06250000, 0.0
331, 0.12500000, 0.06250000, 0.0
332, 0.15000000, 0.06250000, 0.0
333, 0.17500000, 0.06250000, 0.0
334, 0.20000000, 0.06250000, 0.0
335, 0.22500000, 0.06250000, 0.0
336, 0.25000000, 0.06250000, 0.0
337, 0.27500000, 0.06250000, 0.0
338, 0.30000000, 0.06250000, 0.0
339, 0.32500000, 0.06250000, 0.0
340, 0.35000000, 0.06250000, 0.0
341, 0.37500000, 0.06250000, 0.0
342, 0.40000000, 0.06250000, 0.0
343, 0.42500000, 0.06250000, 0.0
344, 0.45000000, 0.06250000, 0.0
345, 0.47500000, 0.06250000, 0.0
346, 0.50000000, 0.06250000, 0.0
347, 0.52500000, 0.06250000, 0.0
348, 0.55000000, 0.06250000, 0.0
349, 0.57500000, 0.06250000, 0.0
350, 0.60000000, 0.06250000, 0.0
351, 0.62500000, 0.06250000, 0.0
352, 0.65000000, 0.06250000, 0.0
353, 0.67500000, 0.06250000, 0.0
354, 0.70000000, 0.06250000, 0.0
355, 0.72500000, 0.06250000, 0.0
356, 0.75000000, 0.06250000, 0.0
357, 0.77500000, 0.06250000, 0.0
358, 0.80000000, 0.06250000, 0.0
359, 0.82500000, 0.06250000, 0.0
360, 0.85000000, 0.06250000, 0.0
361, 0.87500000, 0.06250000, 0.0
362, 0.90000000, 0.06250000, 0.0
363, 0.92500000, 0.06250000, 0.0
364, 0.95000000, 0.06250000, 0.0
365, 0.97500000, 0.06250000, 0.0
366, 1.00000000, 0.06250000, 0.0
367, 0.00000000, 0.07500000, 0.0
368, 0.01250000, 0.07500000, 0.0
369, 0.02500000, 0.07500000, 0.0
370, 0.03750000, 0.07500000, 0.0
371, 0.05000000, 0.07500000, 0.0
372, 0.06250000, 0.07500000, 0.0
373, 0.07500000, 0.07500000, 0.0
374, 0.08750000, 0.07500000, 0.0
375, 0.10000000, 0.07500000, 0.0
376, 0.11250000, 0.07500000, 0.0
377, 0.12500000, 0.07500000, 0.0
378, 0.13750000, 0.07500000, 0.0
379, 0.15000000, 0.07500000, 0.0
380, 0.16250000, 0.07500000, 0.0
381, 0.17500000, 0.07500000, 0.0
382, 0.18750000, 0.07500000, 0.0
383, 0.20000000, 0.07500000, 0.0
384, 0.21250000, 0.07500000, 0.0
385, 0.22500000, 0.07500000, 0.0
386, 0.23750000, 0.07500000, 0.0
387, 0.25000000, 0.07500000, 0.0
388, 0.26250000, 0.07500000, 0.0
389, 0.27500000, 0.07500000, 0.0
390, 0.28750000, 0.07500000, 0.0
391, 0.30000000, 0.07500000, 0.0
392, 0.31250000, 0.07500000, 0.0
393, 0.32500000, 0.07500000, 0.0
394, 0.33750000, 0.07500000, 0.0
395, 0.35000000, 0.07500000, 0.0
396, 0.36250000, 0.07500000, 0.0
397, 0.37500000, 0.07500000, 0.0
398, 0.38750000, 0.07500000, 0.0
399, 0.40000000, 0.07500000, 0.0
400, 0.41250000, 0.07500000, 0.0
401, 0.42500000, 0.07500000, 0.0
402, 0.43750000, 0.07500000, 0.0
403, 0.45000000, 0.07500000, 0.0
404, 0.46250000, 0.07500000, 0.0
405, 0.47500000, 0.07500000, 0.0
406, 0.48750000, 0.07500000, 0.0
407, 0.50000000, 0.07500000, 0.0
408, 0.51250000, 0.07500000, 0.0
409, 0.52500000, 0.07500000, 0.0
410, 0.53750000, 0.07500000, 0.0
411, 0.55000000, 0.07500000, 0.0
412, 0.56250000, 0.07500000, 0.0
413, 0.57500000, 0.07500000, 0.0
414, 0.58750000, 0.07500000, 0.0
415, 0.60000000, 0.07500000, 0.0
416, 0.61250000, 0.07500000, 0.0
417, 0.62500000, 0.07500000, 0.0
418, 0.63750000, 0.07500000, 0.0
419, 0.65000000, 0.07500000, 0.0
420, 0.66250000, 0.07500000, 0.0
421, 0.67500000, 0.07500000, 0.0
422, 0.68750000, 0.07500000, 0.0
423, 0.70000000, 0.07500000, 0.0
424, 0.71250000, 0.07500000, 0.0
425, 0.72500000, 0.07500000, 0.0
426, 0.73750000, 0.07500000, 0.0
427, 0.75000000, 0.07500000, 0.0
428, 0.76250000, 0.07500000, 0.0
429, 0.77500000, 0.07500000, 0.0
430, 0.78750000, 0.07500000, 0.0
431, 0.80000000, 0.07500000, 0.0
432, 0.81250000, 0.07500000, 0.0
433, 0.82500000, 0.07500000, 0.0
434, 0.83750000, 0.07500000, 0.0
435, 0.85000000, 0.07500000, 0.0
436, 0.86250000, 0.07500000, 0.0
437, 0.87500000, 0.07500000, 0.0
438, 0.88750000, 0.07500000, 0.0
439, 0.90000000, 0.07500000, 0.0
440, 0.91250000, 0.07500000, 0.0
441, 0.92500000, 0.07500000, 0.0
442, 0.93750000, 0.07500000, 0.0
443, 0.95000000, 0.07500000, 0.0
444, 0.96250000, 0.07500000, 0.0
445, 0.97500000, 0.07500000, 0.0
446, 0.98750000, 0.07500000, 0.0
447, 1.00000000, 0.07500000, 0.0
448, 0.00000000, 0.08750000, 0.0
449, 0.02500000, 0.08750000, 0.0
450, 0.05000000, 0.08750000, 0.0
451, 0.07500000, 0.08750000, 0.0
452, 0.10000000, 0.08750000, 0.0
453, 0.12500000, 0.08750000, 0.0
454, 0.15000000, 0.08750000, 0.0
455, 0.17500000, 0.08750000, 0.0
456, 0.20000000, 0.08750000, 0.0
457, 0.22500000, 0.08750000, 0.0
458, 0.25000000, 0.08750000, 0.0
459, 0.27500000, 0.08750000, 0.0
460, 0.30000000, 0.08750000, 0.0
461, 0.32500000, 0.08750000, 0.0
462, 0.35000000, 0.08750000, 0.0
463, 0.37500000, 0.08750000, 0.0
464, 0.40000000, 0.08750000, 0.0
465, 0.42500000, 0.08750000, 0.0
466, 0.45000000, 0.08750000, 0.0
467, 0.47500000, 0.08750000, 0.0
468, 0.50000000, 0.08750000, 0.0
469, 0.52500000, 0.08750000, 0.0
470, 0.55000000, 0.08750000, 0.0
471, 0.57500000, 0.08750000, 0.0
472, 0.60000000, 0.08750000, 0.0
473, 0.62500000, 0.08750000, 0.0
474, 0.65000000, 0.08750000, 0.0
475, 0.67500000, 0.08750000, 0.0
476, 0.70000000, 0.08750000, 0.0
477, 0.72500000, 0.08750000, 0.0
478, 0.75000000, 0.08750000, 0.0
479, 0.77500000, 0.08750000, 0.0
480, 0.80000000, 0.08750000, 0.0
481, 0.82500000, 0.08750000, 0.0
482, 0.85000000, 0.08750000, 0.0
483, 0.87500000, 0.08750000, 0.0
484, 0.90000000, 0.08750000, 0.0
485, 0.92500000, 0.08750000, 0.0
486, 0.95000000, 0.08750000, 0.0
487, 0.97500000, 0.08750000, 0.0
488, 1.00000000, 0.08750000, 0.0
489, 0.00000000, 0.10000000, 0.0
490, 0.01250000, 0.10000000, 0.0
491, 0.02500000, 0.10000000, 0.0
492, 0.03750000, 0.10000000, 0.0
493, 0.05000000, 0.10000000, 0.0
494, 0.06250000, 0.10000000, 0.0
495, 0.07500000, 0.10000000, 0.0
496, 0.08750000, 0.10000000, 0.0
497, 0.10000000, 0.10000000, 0.0
498, 0.11250000, 0.10000000, 0.0
499, 0.12500000, 0.10000000, 0.0
500, 0.13750000, 0.10000000, 0.0
501, 0.15000000, 0.10000000, 0.0
502, 0.16250000, 0.10000000, 0.0
503, 0.17500000, 0.10000000, 0.0
504, 0.18750000, 0.10000000, 0.0
505, 0.20000000, 0.10000000, 0.0
506, 0.21250000, 0.10000000, 0.0
507, 0.22500000, 0.10000000, 0.0
508, 0.23750000, 0.10000000, 0.0
509, 0.25000000, 0.10000000, 0.0
510, 0.26250000, 0.10000000, 0.0
511, 0.27500000, 0.10000000, 0.0
512, 0.28750000, 0.10000000, 0.0
513, 0.30000000, 0.10000000, 0.0
514, 0.31250000, 0.10000000, 0.0
515, 0.32500000, 0.10000000, 0.0
516, 0.33750000, 0.10000000, 0.0
517, 0.35000000, 0.10000000, 0.0
518, 0.36250000, 0.10000000, 0.0
519, 0.37500000, 0.10000000, 0.0
520, 0.38750000, 0.10000000, 0.0
521, 0.40000000, 0.10000000, 0.0
522, 0.41250000, 0.10000000, 0.0
523, 0.42500000, 0.10000000, 0.0
524, 0.43750000, 0.10000000, 0.0
525, 0.45000000, 0.10000000, 0.0
526, 0.46250000, 0.10000000, 0.0
527, 0.47500000, 0.10000000, 0.0
528, 0.48750000, 0.10000000, 0.0
529, 0.50000000, 0.10000000, 0.0
530, 0.51250000, 0.10000000, 0.0
531, 0.52500000, 0.10000000, 0.0
532, 0.53750000, 0.10000000, 0.0
533, 0.55000000, 0.10000000, 0.0
534, 0.56250000, 0.10000000, 0.0
535, 0.57500000, 0.10000000, 0.0
536, 0.58750000, 0.10000000, 0.0
537, 0.60000000, 0.10000000, 0.0
538, 0.61250000, 0.10000000, 0.0
539, 0.62500000, 0.10000000, 0.0
540, 0.63750000, 0.10000000, 0.0
541, 0.65000000, 0.10000000, 0.0
542, 0.66250000, 0.10000000, 0.0
543, 0.67500000, 0.10000000, 0.0
544, 0.68750000, 0.10000000, 0.0
545, 0.70000000, 0.10000000, 0.0
546, 0.71250000, 0.10000000, 0.0
547, 0.72500000, 0.10000000, 0.0
548, 0.73750000, 0.10000000, 0.0
549, 0.75000000, 0.10000000, 0.0
550, 0.76250000, 0.10000000, 0.0
551, 0.77500000, 0.10000000, 0.0
552, 0.78750000, 0.10000000, 0.0
553, 0.80000000, 0.10000000, 0.0
554, 0.81250000, 0.10000000, 0.0
555, 0.82500000, 0.10000000, 0.0
556, 0.83750000, 0.10000000, 0.0
557, 0.85000000, 0.10000000, 0.0
558, 0.86250000, 0.10000000, 0.0
559, 0.87500000, 0.10000000, 0.0
560, 0.88750000, 0.10000000, 0.0
561, 0.90000000, 0.10000000, 0.0
562, 0.91250000, 0.10000000, 0.0
563, 0.92500000, 0.10000000, 0.0
564, 0.93750000, 0.10000000, 0.0
565, 0.95000000, 0.10000000, 0.0
566, 0.96250000, 0.10000000, 0.0
567, 0.97500000, 0.10000000, 0.0
568, 0.98750000, 0.10000000, 0.0
569, 1.00000000, 0.10000000, 0.0
*ELEMENT, TYPE=S8R, ELSET=EALL
1, 1, 3, 125, 123, 2, 83, 124, 82
2, 3, 5, 127, 125, 4, 84, 126, 83
3, 5, 7, 129, 127, 6, 85, 128, 84
4, 7, 9, 131, 129, 8, 86, 130, 85
5, 9, 11, 133, 131, 10, 87, 132, 86
6, 11, 13, 135, 133, 12, 88, 134, 87
7, 13, 15, 137, 135, 14, 89, 136, 88
8, 15, 17, 139, 137, 16, 90, 138, 89
9, 17, 19, 141, 139, 18, 91, 140, 90
10, 19, 21, 143, 141, 20, 92, 142, 91
11, 21, 23, 145, 143, 22, 93, 144, 92
12, 23, 25, 147, 145, 24, 94, 146, 93
13, 25, 27, 149, 147, 26, 95, 148, 94
14, 27, 29, 151, 149, 28, 96, 150, 95
15, 29, 31, 153, 151, 30, 97, 152, 96
16, 31, 33, 155, 153, 32, 98, 154, 97
17, 33, 35, 157, 155, 34, 99, 156, 98
18, 35, 37, 159, 157, 36, 100, 158, 99
19, 37, 39, 161, 159, 38, 101, 160, 100
20, 39, 41, 163, 161, 40, 102, 162, 101
21, 41, 43, 165, 163, 42, 103, 164, 102
22, 43, 45, 167, 165, 44, 104, 166, 103
23, 45, 47, 169, 167, 46, 105, 168, 104
24, 47, 49, 171, 169, 48, 106, 170, 105
25, 49, 51, 173, 171, 50, 107, 172, 106
26, 51, 53, 175, 173, 52, 108, 174, 107
27, 53, 55, 177, 175, 54, 109, 176, 108
28, 55, 57, 179, 177, 56, 110, 178, 109
29, 57, 59, 181, 179, 58, 111, 180, 110
30, 59, 61, 183, 181, 60, 112, 182, 111
31, 61, 63, 185, 183, 62, 113, 184, 112
32, 63, 65, 187, 185, 64, 114, 186, 113
33, 65, 67, 189, 187, 66, 115, 188, 114
34, 67, 69, 191, 189, 68, 116, 190, 115
35, 69, 71, 193, 191, 70, 117, 192, 116
36, 71, 73, 195, 193, 72, 118, 194, 117
37, 73, 75, 197, 195, 74, 119, 196, 118
38, 75, 77, 199, 197, 76, 120, 198, 119
39, 77, 79, 201, 199, 78, 121, 200, 120
40, 79, 81, 203, 201, 80, 122, 202, 121
41, 123, 125, 247, 245, 124, 205, 246, 204
42, 125, 127, 249, 247, 126, 206, 248, 205
43, 127, 129, 251, 249, 128, 207, 250, 206
44, 129, 131, 253, 251, 130, 208, 252, 207
45, 131, 133, 255, 253, 132, 209, 254, 208
46, 133, 135, 257, 255, 134, 210, 256, 209
47, 135, 137, 259, 257, 136, 211, 258, 210
48, 137, 139, 261, 259, 138, 212, 260, 211
49, 139, 141, 263, 261, 140, 213, 262, 212
50, 141, 143, 265, 263, 142, 214, 264, 213
51, 143, 145, 267, 265, 144, 215, 266, 214
52, 145, 147, 269, 267, 146, 216, 268, 215
53, 147, 149, 271, 269, 148, 217, 270, 216
54, 149, 151, 273, 271, 150, 218, 272, 217
55, 151, 153, 275, 273, 152, 219, 274, 218
56, 153, 155, 277, 275, 154, 220, 276, 219
57, 155, 157, 279, 277, 156, 221, 278, 220
58, 157, 159, 281, 279, 158, 222, 280, 221
59, 159, 161, 283, 281, 160, 223, 282, 222
60, 161, 163, 285, 283, 162, 224, 284, 223
61, 163, 165, 287, 285, 164, 225, 286, 224
62, 165, 167, 289, 287, 166, 226, 288, 225
63, 167, 169, 291, 289, 168, 227, 290, 226
64, 169, 171, 293, 291, 170, 228, 292, 227
65, 171, 173, 295, 293, 172, 229, 294, 228
66, 173, 175, 297, 295, 174, 230, 296, 229
67, 175, 177, 299, 297, 176, 231, 298, 230
68, 177, 179, 301, 299, 178, 232, 300, 231
69, 179, 181, 303, 301, 180, 233, 302, 232
70, 181, 183, 305, 303, 182, 234, 304, 233
71, 183, 185, 307, 305, 184, 235, 306, 234
72, 185, 187, 309, 307, 186, 236, 308, 235
73, 187, 189, 311, 309, 188, 237, 310, 236
74, 189, 191, 313, 311, 190, 238, 312, 237
75, 191, 193, 315, 313, 192, 239, 314, 238
76, 193, 195, 317, 315, 194, 240, 316, 239
77, 195, 197, 319, 317, 196, 241, 318, 240
78, 197, 199, 321, 319, 198, 242, 320, 241
79, 199, 201, 323, 321, 200, 243, 322, 242
80, 201, 203, 325, 323, 202, 244, 324, 243
81, 245, 247, 369, 367, 246, 327, 368, 326
82, 247, 249, 371, 369, 248, 328, 370, 327
83, 249, 251, 373, 371, 250, 329, 372, 328
84, 251, 253, 375, 373, 252, 330, 374, 329
85, 253, 255, 377, 375, 254, 331, 376, 330
86, 255, 257, 379, 377, 256, 332, 378, 331
87, 257, 259, 381, 379, 258, 333, 380, 332
88, 259, 261, 383, 381, 260, 334, 382, 333
89, 261, 263, 385, 383, 262, 335, 384, 334
90, 263, 265, 387, 385, 264, 336, 386, 335
91, 265, 267, 389, 387, 266, 337, 388, 336
92, 267, 269, 391, 389, 268, 338, 390, 337
93, 269, 271, 393, 391, 270, 339, 392, 338
94, 271, 273, 395, 393, 272, 340, 394, 339
95, 273, 275, 397, 395, 274, 341, 396, 340
96, 275, 277, 399, 397, 276, 342, 398, 341
97, 277, 279, 401, 399, 278, 343, 400, 342
98, 279, 281, 403, 401, 280, 344, 402, 343
99, 281, 283, 405, 403, 282, 345, 404, 344
100, 283, 285, 407, 405, 284, 346, 406, 345
101, 285, 287, 409, 407, 286, 347, 408, 346
102, 287, 289, 411, 409, 288, 348, 410, 347
103, 289, 291, 413, 411, 290, 349, 412, 348
104, 291, 293, 415, 413, 292, 350, 414, 349
105, 293, 295, 417, 415, 294, 351, 416, 350
106, 295, 297, 419, 417, 296, 352, 418, 351
107, 297, 299, 421, 419, 298, 353, 420, 352
108, 299, 301, 423, 421, 300, 354, 422, 353
109, 301, 303, 425, 423, 302, 355, 424, 354
110, 303, 305, 427, 425, 304, 356, 426, 355
111, 305, 307, 429, 427, 306, 357, 428, 356
112, 307, 309, 431, 429, 308, 358, 430, 357
113, 309, 311, 433, 431, 310, 359, 432, 358
114, 311, 313, 435, 433, 312, 360, 434, 359
115, 313, 315, 437, 435, 314, 361, 436, 360
116, 315, 317, 439, 437, 316, 362, 438, 361
117, 317, 319, 441, 439, 318, 363, 440, 362
118, 319, 321, 443, 441, 320, 364, 442, 363
119, 321, 323, 445, 443, 322, 365, 444, 364
120, 323, 325, 447, 445, 324, 366, 446, 365
121, 367, 369, 491, 489, 368, 449, 490, 448
122, 369, 371, 493, 491, 370, 450, 492, 449
123, 371, 373, 495, 493, 372, 451, 494, 450
124, 373, 375, 497, 495, 374, 452, 496, 451
125, 375, 377, 499, 497, 376, 453, 498, 452
126, 377, 379, 501, 499, 378, 454, 500, 453
127, 379, 381, 503, 501, 380, 455, 502, 454
128, 381, 383, 505, 503, 382, 456, 504, 455
129, 383, 385, 507, 505, 384, 457, 506, 456
130, 385, 387, 509, 507, 386, 458, 508, 457
131, 387, 389, 511, 509, 388, 459, 510, 458
132, 389, 391, 513, 511, 390, 460, 512, 459
133, 391, 393, 515, 513, 392, 461, 514, 460
134, 393, 395, 517, 515, 394, 462, 516, 461
135, 395, 397, 519, 517, 396, 463, 518, 462
136, 397, 399, 521, 519, 398, 464, 520, 463
137, 399, 401, 523, 521, 400, 465, 522, 464
138, 401, 403, 525, 523, 402, 466, 524, 465
139, 403, 405, 527, 525, 404, 467, 526, 466
140, 405, 407, 529, 527, 406, 468, 528, 467
141, 407, 409, 531, 529, 408, 469, 530, 468
142, 409, 411, 533, 531, 410, 470, 532, 469
143, 411, 413, 535, 533, 412, 471, 534, 470
144, 413, 415, 537, 535, 414, 472, 536, 471
145, 415, 417, 539, 537, 416, 473, 538, 472
146, 417, 419, 541, 539, 418, 474, 540, 473
147, 419, 421, 543, 541, 420, 475, 542, 474
148, 421, 423, 545, 543, 422, 476, 544, 475
149, 423, 425, 547, 545, 424, 477, 546, 476
150, 425, 427, 549, 547, 426, 478, 548, 477
151, 427, 429, 551, 549, 428, 479, 550, 478
152, 429, 431, 553, 551, 430, 480, 552, 479
153, 431, 433, 555, 553, 432, 481, 554, 480
154, 433, 435, 557, 555, 434, 482, 556, 481
155, 435, 437, 559, 557, 436, 483, 558, 482
156, 437, 439, 561, 559, 438, 484, 560, 483
157, 439, 441, 563, 561, 440, 485, 562, 484
158, 441, 443, 565, 563, 442, 486, 564, 485
159, 443, 445, 567, 565, 444, 487, 566, 486
160, 445, 447, 569, 567, 446, 488, 568, 487
*NSET, NSET=X0
1, 82, 123, 204, 245, 326, 367, 448, 489
*NSET, NSET=XA
81, 122, 203, 244, 325, 366, 447, 488, 569
*NSET, NSET=NALL, GENERATE
1, 569, 1
*SHELL GENERAL SECTION, ELSET=EALL, DENSITY=0.1
2.676256e+09, 4.578599e+07, 2.538014e+08, 0.000000e+00, 0.000000e+00, 1.327320e+08, 3.419092e-09, -3.238928e-10
0.000000e+00, 5.372408e+06, -5.982294e-10, 9.184830e-10, 0.000000e+00, 9.292491e+04, 4.467503e+05, 0.000000e+00
0.000000e+00, 2.787526e-10, 0.000000e+00, 0.000000e+00, 2.569404e+05
*TRANSVERSE SHEAR STIFFNESS
1.098543e+07, 1.085562e+07, -5.997516e-07
** CYLINDRICAL BENDING: SS at x = 0 and x = a (w = 0), one axial
** anchor (u = 0 at x = 0), and PLANE STRAIN on every node:
** v = 0 (dof 2), UR1 = 0 (dof 4, twist about x), drilling fixed.
*BOUNDARY
X0, 3, 3
XA, 3, 3
X0, 1, 1
NALL, 2, 2
NALL, 4, 4
NALL, 6, 6
*STEP, NAME=STATIC
*STATIC
1.0, 1.0
*DLOAD
1, P, 3.925982e+02
2, P, 1.175374e+03
3, P, 1.950903e+03
4, P, 2.714404e+03
5, P, 3.461171e+03
6, P, 4.186597e+03
7, P, 4.886212e+03
8, P, 5.555702e+03
9, P, 6.190939e+03
10, P, 6.788007e+03
11, P, 7.343225e+03
12, P, 7.853169e+03
13, P, 8.314696e+03
14, P, 8.724960e+03
15, P, 9.081432e+03
16, P, 9.381913e+03
17, P, 9.624552e+03
18, P, 9.807853e+03
19, P, 9.930685e+03
20, P, 9.992290e+03
21, P, 9.992290e+03
22, P, 9.930685e+03
23, P, 9.807853e+03
24, P, 9.624552e+03
25, P, 9.381913e+03
26, P, 9.081432e+03
27, P, 8.724960e+03
28, P, 8.314696e+03
29, P, 7.853169e+03
30, P, 7.343225e+03
31, P, 6.788007e+03
32, P, 6.190939e+03
33, P, 5.555702e+03
34, P, 4.886212e+03
35, P, 4.186597e+03
36, P, 3.461171e+03
37, P, 2.714404e+03
38, P, 1.950903e+03
39, P, 1.175374e+03
40, P, 3.925982e+02
41, P, 3.925982e+02
42, P, 1.175374e+03
43, P, 1.950903e+03
44, P, 2.714404e+03
45, P, 3.461171e+03
46, P, 4.186597e+03
47, P, 4.886212e+03
48, P, 5.555702e+03
49, P, 6.190939e+03
50, P, 6.788007e+03
51, P, 7.343225e+03
52, P, 7.853169e+03
53, P, 8.314696e+03
54, P, 8.724960e+03
55, P, 9.081432e+03
56, P, 9.381913e+03
57, P, 9.624552e+03
58, P, 9.807853e+03
59, P, 9.930685e+03
60, P, 9.992290e+03
61, P, 9.992290e+03
62, P, 9.930685e+03
63, P, 9.807853e+03
64, P, 9.624552e+03
65, P, 9.381913e+03
66, P, 9.081432e+03
67, P, 8.724960e+03
68, P, 8.314696e+03
69, P, 7.853169e+03
70, P, 7.343225e+03
71, P, 6.788007e+03
72, P, 6.190939e+03
73, P, 5.555702e+03
74, P, 4.886212e+03
75, P, 4.186597e+03
76, P, 3.461171e+03
77, P, 2.714404e+03
78, P, 1.950903e+03
79, P, 1.175374e+03
80, P, 3.925982e+02
81, P, 3.925982e+02
82, P, 1.175374e+03
83, P, 1.950903e+03
84, P, 2.714404e+03
85, P, 3.461171e+03
86, P, 4.186597e+03
87, P, 4.886212e+03
88, P, 5.555702e+03
89, P, 6.190939e+03
90, P, 6.788007e+03
91, P, 7.343225e+03
92, P, 7.853169e+03
93, P, 8.314696e+03
94, P, 8.724960e+03
95, P, 9.081432e+03
96, P, 9.381913e+03
97, P, 9.624552e+03
98, P, 9.807853e+03
99, P, 9.930685e+03
100, P, 9.992290e+03
101, P, 9.992290e+03
102, P, 9.930685e+03
103, P, 9.807853e+03
104, P, 9.624552e+03
105, P, 9.381913e+03
106, P, 9.081432e+03
107, P, 8.724960e+03
108, P, 8.314696e+03
109, P, 7.853169e+03
110, P, 7.343225e+03
111, P, 6.788007e+03
112, P, 6.190939e+03
113, P, 5.555702e+03
114, P, 4.886212e+03
115, P, 4.186597e+03
116, P, 3.461171e+03
117, P, 2.714404e+03
118, P, 1.950903e+03
119, P, 1.175374e+03
120, P, 3.925982e+02
121, P, 3.925982e+02
122, P, 1.175374e+03
123, P, 1.950903e+03
124, P, 2.714404e+03
125, P, 3.461171e+03
126, P, 4.186597e+03
127, P, 4.886212e+03
128, P, 5.555702e+03
129, P, 6.190939e+03
130, P, 6.788007e+03
131, P, 7.343225e+03
132, P, 7.853169e+03
133, P, 8.314696e+03
134, P, 8.724960e+03
135, P, 9.081432e+03
136, P, 9.381913e+03
137, P, 9.624552e+03
138, P, 9.807853e+03
139, P, 9.930685e+03
140, P, 9.992290e+03
141, P, 9.992290e+03
142, P, 9.930685e+03
143, P, 9.807853e+03
144, P, 9.624552e+03
145, P, 9.381913e+03
146, P, 9.081432e+03
147, P, 8.724960e+03
148, P, 8.314696e+03
149, P, 7.853169e+03
150, P, 7.343225e+03
151, P, 6.788007e+03
152, P, 6.190939e+03
153, P, 5.555702e+03
154, P, 4.886212e+03
155, P, 4.186597e+03
156, P, 3.461171e+03
157, P, 2.714404e+03
158, P, 1.950903e+03
159, P, 1.175374e+03
160, P, 3.925982e+02
*NODE PRINT, NSET=NALL, FREQUENCY=1
U
*EL PRINT, ELSET=EALL, FREQUENCY=1
SF, SM
*EL PRINT, ELSET=EALL, FREQUENCY=1
COORD
*END STEP
