*HEADING
Nayak-Shenoi-Moy Ex.5 sandwich, OpenSG-RM 8x8 shell (S8R), step pulse
** (0/90/0/90/core)s, a = b = 1.524 m, h = 0.1524 m, q0 = 6.89476e+07 Pa
** load q0 F(t) sin(pi x/a) sin(pi y/b); dt = 5e-05 s, T = 0.02 s
*NODE
1, 0.00000000, 0.00000000, 0.0
2, 0.03810000, 0.00000000, 0.0
3, 0.07620000, 0.00000000, 0.0
4, 0.11430000, 0.00000000, 0.0
5, 0.15240000, 0.00000000, 0.0
6, 0.19050000, 0.00000000, 0.0
7, 0.22860000, 0.00000000, 0.0
8, 0.26670000, 0.00000000, 0.0
9, 0.30480000, 0.00000000, 0.0
10, 0.34290000, 0.00000000, 0.0
11, 0.38100000, 0.00000000, 0.0
12, 0.41910000, 0.00000000, 0.0
13, 0.45720000, 0.00000000, 0.0
14, 0.49530000, 0.00000000, 0.0
15, 0.53340000, 0.00000000, 0.0
16, 0.57150000, 0.00000000, 0.0
17, 0.60960000, 0.00000000, 0.0
18, 0.64770000, 0.00000000, 0.0
19, 0.68580000, 0.00000000, 0.0
20, 0.72390000, 0.00000000, 0.0
21, 0.76200000, 0.00000000, 0.0
22, 0.80010000, 0.00000000, 0.0
23, 0.83820000, 0.00000000, 0.0
24, 0.87630000, 0.00000000, 0.0
25, 0.91440000, 0.00000000, 0.0
26, 0.95250000, 0.00000000, 0.0
27, 0.99060000, 0.00000000, 0.0
28, 1.02870000, 0.00000000, 0.0
29, 1.06680000, 0.00000000, 0.0
30, 1.10490000, 0.00000000, 0.0
31, 1.14300000, 0.00000000, 0.0
32, 1.18110000, 0.00000000, 0.0
33, 1.21920000, 0.00000000, 0.0
34, 1.25730000, 0.00000000, 0.0
35, 1.29540000, 0.00000000, 0.0
36, 1.33350000, 0.00000000, 0.0
37, 1.37160000, 0.00000000, 0.0
38, 1.40970000, 0.00000000, 0.0
39, 1.44780000, 0.00000000, 0.0
40, 1.48590000, 0.00000000, 0.0
41, 1.52400000, 0.00000000, 0.0
42, 0.00000000, 0.03810000, 0.0
43, 0.07620000, 0.03810000, 0.0
44, 0.15240000, 0.03810000, 0.0
45, 0.22860000, 0.03810000, 0.0
46, 0.30480000, 0.03810000, 0.0
47, 0.38100000, 0.03810000, 0.0
48, 0.45720000, 0.03810000, 0.0
49, 0.53340000, 0.03810000, 0.0
50, 0.60960000, 0.03810000, 0.0
51, 0.68580000, 0.03810000, 0.0
52, 0.76200000, 0.03810000, 0.0
53, 0.83820000, 0.03810000, 0.0
54, 0.91440000, 0.03810000, 0.0
55, 0.99060000, 0.03810000, 0.0
56, 1.06680000, 0.03810000, 0.0
57, 1.14300000, 0.03810000, 0.0
58, 1.21920000, 0.03810000, 0.0
59, 1.29540000, 0.03810000, 0.0
60, 1.37160000, 0.03810000, 0.0
61, 1.44780000, 0.03810000, 0.0
62, 1.52400000, 0.03810000, 0.0
63, 0.00000000, 0.07620000, 0.0
64, 0.03810000, 0.07620000, 0.0
65, 0.07620000, 0.07620000, 0.0
66, 0.11430000, 0.07620000, 0.0
67, 0.15240000, 0.07620000, 0.0
68, 0.19050000, 0.07620000, 0.0
69, 0.22860000, 0.07620000, 0.0
70, 0.26670000, 0.07620000, 0.0
71, 0.30480000, 0.07620000, 0.0
72, 0.34290000, 0.07620000, 0.0
73, 0.38100000, 0.07620000, 0.0
74, 0.41910000, 0.07620000, 0.0
75, 0.45720000, 0.07620000, 0.0
76, 0.49530000, 0.07620000, 0.0
77, 0.53340000, 0.07620000, 0.0
78, 0.57150000, 0.07620000, 0.0
79, 0.60960000, 0.07620000, 0.0
80, 0.64770000, 0.07620000, 0.0
81, 0.68580000, 0.07620000, 0.0
82, 0.72390000, 0.07620000, 0.0
83, 0.76200000, 0.07620000, 0.0
84, 0.80010000, 0.07620000, 0.0
85, 0.83820000, 0.07620000, 0.0
86, 0.87630000, 0.07620000, 0.0
87, 0.91440000, 0.07620000, 0.0
88, 0.95250000, 0.07620000, 0.0
89, 0.99060000, 0.07620000, 0.0
90, 1.02870000, 0.07620000, 0.0
91, 1.06680000, 0.07620000, 0.0
92, 1.10490000, 0.07620000, 0.0
93, 1.14300000, 0.07620000, 0.0
94, 1.18110000, 0.07620000, 0.0
95, 1.21920000, 0.07620000, 0.0
96, 1.25730000, 0.07620000, 0.0
97, 1.29540000, 0.07620000, 0.0
98, 1.33350000, 0.07620000, 0.0
99, 1.37160000, 0.07620000, 0.0
100, 1.40970000, 0.07620000, 0.0
101, 1.44780000, 0.07620000, 0.0
102, 1.48590000, 0.07620000, 0.0
103, 1.52400000, 0.07620000, 0.0
104, 0.00000000, 0.11430000, 0.0
105, 0.07620000, 0.11430000, 0.0
106, 0.15240000, 0.11430000, 0.0
107, 0.22860000, 0.11430000, 0.0
108, 0.30480000, 0.11430000, 0.0
109, 0.38100000, 0.11430000, 0.0
110, 0.45720000, 0.11430000, 0.0
111, 0.53340000, 0.11430000, 0.0
112, 0.60960000, 0.11430000, 0.0
113, 0.68580000, 0.11430000, 0.0
114, 0.76200000, 0.11430000, 0.0
115, 0.83820000, 0.11430000, 0.0
116, 0.91440000, 0.11430000, 0.0
117, 0.99060000, 0.11430000, 0.0
118, 1.06680000, 0.11430000, 0.0
119, 1.14300000, 0.11430000, 0.0
120, 1.21920000, 0.11430000, 0.0
121, 1.29540000, 0.11430000, 0.0
122, 1.37160000, 0.11430000, 0.0
123, 1.44780000, 0.11430000, 0.0
124, 1.52400000, 0.11430000, 0.0
125, 0.00000000, 0.15240000, 0.0
126, 0.03810000, 0.15240000, 0.0
127, 0.07620000, 0.15240000, 0.0
128, 0.11430000, 0.15240000, 0.0
129, 0.15240000, 0.15240000, 0.0
130, 0.19050000, 0.15240000, 0.0
131, 0.22860000, 0.15240000, 0.0
132, 0.26670000, 0.15240000, 0.0
133, 0.30480000, 0.15240000, 0.0
134, 0.34290000, 0.15240000, 0.0
135, 0.38100000, 0.15240000, 0.0
136, 0.41910000, 0.15240000, 0.0
137, 0.45720000, 0.15240000, 0.0
138, 0.49530000, 0.15240000, 0.0
139, 0.53340000, 0.15240000, 0.0
140, 0.57150000, 0.15240000, 0.0
141, 0.60960000, 0.15240000, 0.0
142, 0.64770000, 0.15240000, 0.0
143, 0.68580000, 0.15240000, 0.0
144, 0.72390000, 0.15240000, 0.0
145, 0.76200000, 0.15240000, 0.0
146, 0.80010000, 0.15240000, 0.0
147, 0.83820000, 0.15240000, 0.0
148, 0.87630000, 0.15240000, 0.0
149, 0.91440000, 0.15240000, 0.0
150, 0.95250000, 0.15240000, 0.0
151, 0.99060000, 0.15240000, 0.0
152, 1.02870000, 0.15240000, 0.0
153, 1.06680000, 0.15240000, 0.0
154, 1.10490000, 0.15240000, 0.0
155, 1.14300000, 0.15240000, 0.0
156, 1.18110000, 0.15240000, 0.0
157, 1.21920000, 0.15240000, 0.0
158, 1.25730000, 0.15240000, 0.0
159, 1.29540000, 0.15240000, 0.0
160, 1.33350000, 0.15240000, 0.0
161, 1.37160000, 0.15240000, 0.0
162, 1.40970000, 0.15240000, 0.0
163, 1.44780000, 0.15240000, 0.0
164, 1.48590000, 0.15240000, 0.0
165, 1.52400000, 0.15240000, 0.0
166, 0.00000000, 0.19050000, 0.0
167, 0.07620000, 0.19050000, 0.0
168, 0.15240000, 0.19050000, 0.0
169, 0.22860000, 0.19050000, 0.0
170, 0.30480000, 0.19050000, 0.0
171, 0.38100000, 0.19050000, 0.0
172, 0.45720000, 0.19050000, 0.0
173, 0.53340000, 0.19050000, 0.0
174, 0.60960000, 0.19050000, 0.0
175, 0.68580000, 0.19050000, 0.0
176, 0.76200000, 0.19050000, 0.0
177, 0.83820000, 0.19050000, 0.0
178, 0.91440000, 0.19050000, 0.0
179, 0.99060000, 0.19050000, 0.0
180, 1.06680000, 0.19050000, 0.0
181, 1.14300000, 0.19050000, 0.0
182, 1.21920000, 0.19050000, 0.0
183, 1.29540000, 0.19050000, 0.0
184, 1.37160000, 0.19050000, 0.0
185, 1.44780000, 0.19050000, 0.0
186, 1.52400000, 0.19050000, 0.0
187, 0.00000000, 0.22860000, 0.0
188, 0.03810000, 0.22860000, 0.0
189, 0.07620000, 0.22860000, 0.0
190, 0.11430000, 0.22860000, 0.0
191, 0.15240000, 0.22860000, 0.0
192, 0.19050000, 0.22860000, 0.0
193, 0.22860000, 0.22860000, 0.0
194, 0.26670000, 0.22860000, 0.0
195, 0.30480000, 0.22860000, 0.0
196, 0.34290000, 0.22860000, 0.0
197, 0.38100000, 0.22860000, 0.0
198, 0.41910000, 0.22860000, 0.0
199, 0.45720000, 0.22860000, 0.0
200, 0.49530000, 0.22860000, 0.0
201, 0.53340000, 0.22860000, 0.0
202, 0.57150000, 0.22860000, 0.0
203, 0.60960000, 0.22860000, 0.0
204, 0.64770000, 0.22860000, 0.0
205, 0.68580000, 0.22860000, 0.0
206, 0.72390000, 0.22860000, 0.0
207, 0.76200000, 0.22860000, 0.0
208, 0.80010000, 0.22860000, 0.0
209, 0.83820000, 0.22860000, 0.0
210, 0.87630000, 0.22860000, 0.0
211, 0.91440000, 0.22860000, 0.0
212, 0.95250000, 0.22860000, 0.0
213, 0.99060000, 0.22860000, 0.0
214, 1.02870000, 0.22860000, 0.0
215, 1.06680000, 0.22860000, 0.0
216, 1.10490000, 0.22860000, 0.0
217, 1.14300000, 0.22860000, 0.0
218, 1.18110000, 0.22860000, 0.0
219, 1.21920000, 0.22860000, 0.0
220, 1.25730000, 0.22860000, 0.0
221, 1.29540000, 0.22860000, 0.0
222, 1.33350000, 0.22860000, 0.0
223, 1.37160000, 0.22860000, 0.0
224, 1.40970000, 0.22860000, 0.0
225, 1.44780000, 0.22860000, 0.0
226, 1.48590000, 0.22860000, 0.0
227, 1.52400000, 0.22860000, 0.0
228, 0.00000000, 0.26670000, 0.0
229, 0.07620000, 0.26670000, 0.0
230, 0.15240000, 0.26670000, 0.0
231, 0.22860000, 0.26670000, 0.0
232, 0.30480000, 0.26670000, 0.0
233, 0.38100000, 0.26670000, 0.0
234, 0.45720000, 0.26670000, 0.0
235, 0.53340000, 0.26670000, 0.0
236, 0.60960000, 0.26670000, 0.0
237, 0.68580000, 0.26670000, 0.0
238, 0.76200000, 0.26670000, 0.0
239, 0.83820000, 0.26670000, 0.0
240, 0.91440000, 0.26670000, 0.0
241, 0.99060000, 0.26670000, 0.0
242, 1.06680000, 0.26670000, 0.0
243, 1.14300000, 0.26670000, 0.0
244, 1.21920000, 0.26670000, 0.0
245, 1.29540000, 0.26670000, 0.0
246, 1.37160000, 0.26670000, 0.0
247, 1.44780000, 0.26670000, 0.0
248, 1.52400000, 0.26670000, 0.0
249, 0.00000000, 0.30480000, 0.0
250, 0.03810000, 0.30480000, 0.0
251, 0.07620000, 0.30480000, 0.0
252, 0.11430000, 0.30480000, 0.0
253, 0.15240000, 0.30480000, 0.0
254, 0.19050000, 0.30480000, 0.0
255, 0.22860000, 0.30480000, 0.0
256, 0.26670000, 0.30480000, 0.0
257, 0.30480000, 0.30480000, 0.0
258, 0.34290000, 0.30480000, 0.0
259, 0.38100000, 0.30480000, 0.0
260, 0.41910000, 0.30480000, 0.0
261, 0.45720000, 0.30480000, 0.0
262, 0.49530000, 0.30480000, 0.0
263, 0.53340000, 0.30480000, 0.0
264, 0.57150000, 0.30480000, 0.0
265, 0.60960000, 0.30480000, 0.0
266, 0.64770000, 0.30480000, 0.0
267, 0.68580000, 0.30480000, 0.0
268, 0.72390000, 0.30480000, 0.0
269, 0.76200000, 0.30480000, 0.0
270, 0.80010000, 0.30480000, 0.0
271, 0.83820000, 0.30480000, 0.0
272, 0.87630000, 0.30480000, 0.0
273, 0.91440000, 0.30480000, 0.0
274, 0.95250000, 0.30480000, 0.0
275, 0.99060000, 0.30480000, 0.0
276, 1.02870000, 0.30480000, 0.0
277, 1.06680000, 0.30480000, 0.0
278, 1.10490000, 0.30480000, 0.0
279, 1.14300000, 0.30480000, 0.0
280, 1.18110000, 0.30480000, 0.0
281, 1.21920000, 0.30480000, 0.0
282, 1.25730000, 0.30480000, 0.0
283, 1.29540000, 0.30480000, 0.0
284, 1.33350000, 0.30480000, 0.0
285, 1.37160000, 0.30480000, 0.0
286, 1.40970000, 0.30480000, 0.0
287, 1.44780000, 0.30480000, 0.0
288, 1.48590000, 0.30480000, 0.0
289, 1.52400000, 0.30480000, 0.0
290, 0.00000000, 0.34290000, 0.0
291, 0.07620000, 0.34290000, 0.0
292, 0.15240000, 0.34290000, 0.0
293, 0.22860000, 0.34290000, 0.0
294, 0.30480000, 0.34290000, 0.0
295, 0.38100000, 0.34290000, 0.0
296, 0.45720000, 0.34290000, 0.0
297, 0.53340000, 0.34290000, 0.0
298, 0.60960000, 0.34290000, 0.0
299, 0.68580000, 0.34290000, 0.0
300, 0.76200000, 0.34290000, 0.0
301, 0.83820000, 0.34290000, 0.0
302, 0.91440000, 0.34290000, 0.0
303, 0.99060000, 0.34290000, 0.0
304, 1.06680000, 0.34290000, 0.0
305, 1.14300000, 0.34290000, 0.0
306, 1.21920000, 0.34290000, 0.0
307, 1.29540000, 0.34290000, 0.0
308, 1.37160000, 0.34290000, 0.0
309, 1.44780000, 0.34290000, 0.0
310, 1.52400000, 0.34290000, 0.0
311, 0.00000000, 0.38100000, 0.0
312, 0.03810000, 0.38100000, 0.0
313, 0.07620000, 0.38100000, 0.0
314, 0.11430000, 0.38100000, 0.0
315, 0.15240000, 0.38100000, 0.0
316, 0.19050000, 0.38100000, 0.0
317, 0.22860000, 0.38100000, 0.0
318, 0.26670000, 0.38100000, 0.0
319, 0.30480000, 0.38100000, 0.0
320, 0.34290000, 0.38100000, 0.0
321, 0.38100000, 0.38100000, 0.0
322, 0.41910000, 0.38100000, 0.0
323, 0.45720000, 0.38100000, 0.0
324, 0.49530000, 0.38100000, 0.0
325, 0.53340000, 0.38100000, 0.0
326, 0.57150000, 0.38100000, 0.0
327, 0.60960000, 0.38100000, 0.0
328, 0.64770000, 0.38100000, 0.0
329, 0.68580000, 0.38100000, 0.0
330, 0.72390000, 0.38100000, 0.0
331, 0.76200000, 0.38100000, 0.0
332, 0.80010000, 0.38100000, 0.0
333, 0.83820000, 0.38100000, 0.0
334, 0.87630000, 0.38100000, 0.0
335, 0.91440000, 0.38100000, 0.0
336, 0.95250000, 0.38100000, 0.0
337, 0.99060000, 0.38100000, 0.0
338, 1.02870000, 0.38100000, 0.0
339, 1.06680000, 0.38100000, 0.0
340, 1.10490000, 0.38100000, 0.0
341, 1.14300000, 0.38100000, 0.0
342, 1.18110000, 0.38100000, 0.0
343, 1.21920000, 0.38100000, 0.0
344, 1.25730000, 0.38100000, 0.0
345, 1.29540000, 0.38100000, 0.0
346, 1.33350000, 0.38100000, 0.0
347, 1.37160000, 0.38100000, 0.0
348, 1.40970000, 0.38100000, 0.0
349, 1.44780000, 0.38100000, 0.0
350, 1.48590000, 0.38100000, 0.0
351, 1.52400000, 0.38100000, 0.0
352, 0.00000000, 0.41910000, 0.0
353, 0.07620000, 0.41910000, 0.0
354, 0.15240000, 0.41910000, 0.0
355, 0.22860000, 0.41910000, 0.0
356, 0.30480000, 0.41910000, 0.0
357, 0.38100000, 0.41910000, 0.0
358, 0.45720000, 0.41910000, 0.0
359, 0.53340000, 0.41910000, 0.0
360, 0.60960000, 0.41910000, 0.0
361, 0.68580000, 0.41910000, 0.0
362, 0.76200000, 0.41910000, 0.0
363, 0.83820000, 0.41910000, 0.0
364, 0.91440000, 0.41910000, 0.0
365, 0.99060000, 0.41910000, 0.0
366, 1.06680000, 0.41910000, 0.0
367, 1.14300000, 0.41910000, 0.0
368, 1.21920000, 0.41910000, 0.0
369, 1.29540000, 0.41910000, 0.0
370, 1.37160000, 0.41910000, 0.0
371, 1.44780000, 0.41910000, 0.0
372, 1.52400000, 0.41910000, 0.0
373, 0.00000000, 0.45720000, 0.0
374, 0.03810000, 0.45720000, 0.0
375, 0.07620000, 0.45720000, 0.0
376, 0.11430000, 0.45720000, 0.0
377, 0.15240000, 0.45720000, 0.0
378, 0.19050000, 0.45720000, 0.0
379, 0.22860000, 0.45720000, 0.0
380, 0.26670000, 0.45720000, 0.0
381, 0.30480000, 0.45720000, 0.0
382, 0.34290000, 0.45720000, 0.0
383, 0.38100000, 0.45720000, 0.0
384, 0.41910000, 0.45720000, 0.0
385, 0.45720000, 0.45720000, 0.0
386, 0.49530000, 0.45720000, 0.0
387, 0.53340000, 0.45720000, 0.0
388, 0.57150000, 0.45720000, 0.0
389, 0.60960000, 0.45720000, 0.0
390, 0.64770000, 0.45720000, 0.0
391, 0.68580000, 0.45720000, 0.0
392, 0.72390000, 0.45720000, 0.0
393, 0.76200000, 0.45720000, 0.0
394, 0.80010000, 0.45720000, 0.0
395, 0.83820000, 0.45720000, 0.0
396, 0.87630000, 0.45720000, 0.0
397, 0.91440000, 0.45720000, 0.0
398, 0.95250000, 0.45720000, 0.0
399, 0.99060000, 0.45720000, 0.0
400, 1.02870000, 0.45720000, 0.0
401, 1.06680000, 0.45720000, 0.0
402, 1.10490000, 0.45720000, 0.0
403, 1.14300000, 0.45720000, 0.0
404, 1.18110000, 0.45720000, 0.0
405, 1.21920000, 0.45720000, 0.0
406, 1.25730000, 0.45720000, 0.0
407, 1.29540000, 0.45720000, 0.0
408, 1.33350000, 0.45720000, 0.0
409, 1.37160000, 0.45720000, 0.0
410, 1.40970000, 0.45720000, 0.0
411, 1.44780000, 0.45720000, 0.0
412, 1.48590000, 0.45720000, 0.0
413, 1.52400000, 0.45720000, 0.0
414, 0.00000000, 0.49530000, 0.0
415, 0.07620000, 0.49530000, 0.0
416, 0.15240000, 0.49530000, 0.0
417, 0.22860000, 0.49530000, 0.0
418, 0.30480000, 0.49530000, 0.0
419, 0.38100000, 0.49530000, 0.0
420, 0.45720000, 0.49530000, 0.0
421, 0.53340000, 0.49530000, 0.0
422, 0.60960000, 0.49530000, 0.0
423, 0.68580000, 0.49530000, 0.0
424, 0.76200000, 0.49530000, 0.0
425, 0.83820000, 0.49530000, 0.0
426, 0.91440000, 0.49530000, 0.0
427, 0.99060000, 0.49530000, 0.0
428, 1.06680000, 0.49530000, 0.0
429, 1.14300000, 0.49530000, 0.0
430, 1.21920000, 0.49530000, 0.0
431, 1.29540000, 0.49530000, 0.0
432, 1.37160000, 0.49530000, 0.0
433, 1.44780000, 0.49530000, 0.0
434, 1.52400000, 0.49530000, 0.0
435, 0.00000000, 0.53340000, 0.0
436, 0.03810000, 0.53340000, 0.0
437, 0.07620000, 0.53340000, 0.0
438, 0.11430000, 0.53340000, 0.0
439, 0.15240000, 0.53340000, 0.0
440, 0.19050000, 0.53340000, 0.0
441, 0.22860000, 0.53340000, 0.0
442, 0.26670000, 0.53340000, 0.0
443, 0.30480000, 0.53340000, 0.0
444, 0.34290000, 0.53340000, 0.0
445, 0.38100000, 0.53340000, 0.0
446, 0.41910000, 0.53340000, 0.0
447, 0.45720000, 0.53340000, 0.0
448, 0.49530000, 0.53340000, 0.0
449, 0.53340000, 0.53340000, 0.0
450, 0.57150000, 0.53340000, 0.0
451, 0.60960000, 0.53340000, 0.0
452, 0.64770000, 0.53340000, 0.0
453, 0.68580000, 0.53340000, 0.0
454, 0.72390000, 0.53340000, 0.0
455, 0.76200000, 0.53340000, 0.0
456, 0.80010000, 0.53340000, 0.0
457, 0.83820000, 0.53340000, 0.0
458, 0.87630000, 0.53340000, 0.0
459, 0.91440000, 0.53340000, 0.0
460, 0.95250000, 0.53340000, 0.0
461, 0.99060000, 0.53340000, 0.0
462, 1.02870000, 0.53340000, 0.0
463, 1.06680000, 0.53340000, 0.0
464, 1.10490000, 0.53340000, 0.0
465, 1.14300000, 0.53340000, 0.0
466, 1.18110000, 0.53340000, 0.0
467, 1.21920000, 0.53340000, 0.0
468, 1.25730000, 0.53340000, 0.0
469, 1.29540000, 0.53340000, 0.0
470, 1.33350000, 0.53340000, 0.0
471, 1.37160000, 0.53340000, 0.0
472, 1.40970000, 0.53340000, 0.0
473, 1.44780000, 0.53340000, 0.0
474, 1.48590000, 0.53340000, 0.0
475, 1.52400000, 0.53340000, 0.0
476, 0.00000000, 0.57150000, 0.0
477, 0.07620000, 0.57150000, 0.0
478, 0.15240000, 0.57150000, 0.0
479, 0.22860000, 0.57150000, 0.0
480, 0.30480000, 0.57150000, 0.0
481, 0.38100000, 0.57150000, 0.0
482, 0.45720000, 0.57150000, 0.0
483, 0.53340000, 0.57150000, 0.0
484, 0.60960000, 0.57150000, 0.0
485, 0.68580000, 0.57150000, 0.0
486, 0.76200000, 0.57150000, 0.0
487, 0.83820000, 0.57150000, 0.0
488, 0.91440000, 0.57150000, 0.0
489, 0.99060000, 0.57150000, 0.0
490, 1.06680000, 0.57150000, 0.0
491, 1.14300000, 0.57150000, 0.0
492, 1.21920000, 0.57150000, 0.0
493, 1.29540000, 0.57150000, 0.0
494, 1.37160000, 0.57150000, 0.0
495, 1.44780000, 0.57150000, 0.0
496, 1.52400000, 0.57150000, 0.0
497, 0.00000000, 0.60960000, 0.0
498, 0.03810000, 0.60960000, 0.0
499, 0.07620000, 0.60960000, 0.0
500, 0.11430000, 0.60960000, 0.0
501, 0.15240000, 0.60960000, 0.0
502, 0.19050000, 0.60960000, 0.0
503, 0.22860000, 0.60960000, 0.0
504, 0.26670000, 0.60960000, 0.0
505, 0.30480000, 0.60960000, 0.0
506, 0.34290000, 0.60960000, 0.0
507, 0.38100000, 0.60960000, 0.0
508, 0.41910000, 0.60960000, 0.0
509, 0.45720000, 0.60960000, 0.0
510, 0.49530000, 0.60960000, 0.0
511, 0.53340000, 0.60960000, 0.0
512, 0.57150000, 0.60960000, 0.0
513, 0.60960000, 0.60960000, 0.0
514, 0.64770000, 0.60960000, 0.0
515, 0.68580000, 0.60960000, 0.0
516, 0.72390000, 0.60960000, 0.0
517, 0.76200000, 0.60960000, 0.0
518, 0.80010000, 0.60960000, 0.0
519, 0.83820000, 0.60960000, 0.0
520, 0.87630000, 0.60960000, 0.0
521, 0.91440000, 0.60960000, 0.0
522, 0.95250000, 0.60960000, 0.0
523, 0.99060000, 0.60960000, 0.0
524, 1.02870000, 0.60960000, 0.0
525, 1.06680000, 0.60960000, 0.0
526, 1.10490000, 0.60960000, 0.0
527, 1.14300000, 0.60960000, 0.0
528, 1.18110000, 0.60960000, 0.0
529, 1.21920000, 0.60960000, 0.0
530, 1.25730000, 0.60960000, 0.0
531, 1.29540000, 0.60960000, 0.0
532, 1.33350000, 0.60960000, 0.0
533, 1.37160000, 0.60960000, 0.0
534, 1.40970000, 0.60960000, 0.0
535, 1.44780000, 0.60960000, 0.0
536, 1.48590000, 0.60960000, 0.0
537, 1.52400000, 0.60960000, 0.0
538, 0.00000000, 0.64770000, 0.0
539, 0.07620000, 0.64770000, 0.0
540, 0.15240000, 0.64770000, 0.0
541, 0.22860000, 0.64770000, 0.0
542, 0.30480000, 0.64770000, 0.0
543, 0.38100000, 0.64770000, 0.0
544, 0.45720000, 0.64770000, 0.0
545, 0.53340000, 0.64770000, 0.0
546, 0.60960000, 0.64770000, 0.0
547, 0.68580000, 0.64770000, 0.0
548, 0.76200000, 0.64770000, 0.0
549, 0.83820000, 0.64770000, 0.0
550, 0.91440000, 0.64770000, 0.0
551, 0.99060000, 0.64770000, 0.0
552, 1.06680000, 0.64770000, 0.0
553, 1.14300000, 0.64770000, 0.0
554, 1.21920000, 0.64770000, 0.0
555, 1.29540000, 0.64770000, 0.0
556, 1.37160000, 0.64770000, 0.0
557, 1.44780000, 0.64770000, 0.0
558, 1.52400000, 0.64770000, 0.0
559, 0.00000000, 0.68580000, 0.0
560, 0.03810000, 0.68580000, 0.0
561, 0.07620000, 0.68580000, 0.0
562, 0.11430000, 0.68580000, 0.0
563, 0.15240000, 0.68580000, 0.0
564, 0.19050000, 0.68580000, 0.0
565, 0.22860000, 0.68580000, 0.0
566, 0.26670000, 0.68580000, 0.0
567, 0.30480000, 0.68580000, 0.0
568, 0.34290000, 0.68580000, 0.0
569, 0.38100000, 0.68580000, 0.0
570, 0.41910000, 0.68580000, 0.0
571, 0.45720000, 0.68580000, 0.0
572, 0.49530000, 0.68580000, 0.0
573, 0.53340000, 0.68580000, 0.0
574, 0.57150000, 0.68580000, 0.0
575, 0.60960000, 0.68580000, 0.0
576, 0.64770000, 0.68580000, 0.0
577, 0.68580000, 0.68580000, 0.0
578, 0.72390000, 0.68580000, 0.0
579, 0.76200000, 0.68580000, 0.0
580, 0.80010000, 0.68580000, 0.0
581, 0.83820000, 0.68580000, 0.0
582, 0.87630000, 0.68580000, 0.0
583, 0.91440000, 0.68580000, 0.0
584, 0.95250000, 0.68580000, 0.0
585, 0.99060000, 0.68580000, 0.0
586, 1.02870000, 0.68580000, 0.0
587, 1.06680000, 0.68580000, 0.0
588, 1.10490000, 0.68580000, 0.0
589, 1.14300000, 0.68580000, 0.0
590, 1.18110000, 0.68580000, 0.0
591, 1.21920000, 0.68580000, 0.0
592, 1.25730000, 0.68580000, 0.0
593, 1.29540000, 0.68580000, 0.0
594, 1.33350000, 0.68580000, 0.0
595, 1.37160000, 0.68580000, 0.0
596, 1.40970000, 0.68580000, 0.0
597, 1.44780000, 0.68580000, 0.0
598, 1.48590000, 0.68580000, 0.0
599, 1.52400000, 0.68580000, 0.0
600, 0.00000000, 0.72390000, 0.0
601, 0.07620000, 0.72390000, 0.0
602, 0.15240000, 0.72390000, 0.0
603, 0.22860000, 0.72390000, 0.0
604, 0.30480000, 0.72390000, 0.0
605, 0.38100000, 0.72390000, 0.0
606, 0.45720000, 0.72390000, 0.0
607, 0.53340000, 0.72390000, 0.0
608, 0.60960000, 0.72390000, 0.0
609, 0.68580000, 0.72390000, 0.0
610, 0.76200000, 0.72390000, 0.0
611, 0.83820000, 0.72390000, 0.0
612, 0.91440000, 0.72390000, 0.0
613, 0.99060000, 0.72390000, 0.0
614, 1.06680000, 0.72390000, 0.0
615, 1.14300000, 0.72390000, 0.0
616, 1.21920000, 0.72390000, 0.0
617, 1.29540000, 0.72390000, 0.0
618, 1.37160000, 0.72390000, 0.0
619, 1.44780000, 0.72390000, 0.0
620, 1.52400000, 0.72390000, 0.0
621, 0.00000000, 0.76200000, 0.0
622, 0.03810000, 0.76200000, 0.0
623, 0.07620000, 0.76200000, 0.0
624, 0.11430000, 0.76200000, 0.0
625, 0.15240000, 0.76200000, 0.0
626, 0.19050000, 0.76200000, 0.0
627, 0.22860000, 0.76200000, 0.0
628, 0.26670000, 0.76200000, 0.0
629, 0.30480000, 0.76200000, 0.0
630, 0.34290000, 0.76200000, 0.0
631, 0.38100000, 0.76200000, 0.0
632, 0.41910000, 0.76200000, 0.0
633, 0.45720000, 0.76200000, 0.0
634, 0.49530000, 0.76200000, 0.0
635, 0.53340000, 0.76200000, 0.0
636, 0.57150000, 0.76200000, 0.0
637, 0.60960000, 0.76200000, 0.0
638, 0.64770000, 0.76200000, 0.0
639, 0.68580000, 0.76200000, 0.0
640, 0.72390000, 0.76200000, 0.0
641, 0.76200000, 0.76200000, 0.0
642, 0.80010000, 0.76200000, 0.0
643, 0.83820000, 0.76200000, 0.0
644, 0.87630000, 0.76200000, 0.0
645, 0.91440000, 0.76200000, 0.0
646, 0.95250000, 0.76200000, 0.0
647, 0.99060000, 0.76200000, 0.0
648, 1.02870000, 0.76200000, 0.0
649, 1.06680000, 0.76200000, 0.0
650, 1.10490000, 0.76200000, 0.0
651, 1.14300000, 0.76200000, 0.0
652, 1.18110000, 0.76200000, 0.0
653, 1.21920000, 0.76200000, 0.0
654, 1.25730000, 0.76200000, 0.0
655, 1.29540000, 0.76200000, 0.0
656, 1.33350000, 0.76200000, 0.0
657, 1.37160000, 0.76200000, 0.0
658, 1.40970000, 0.76200000, 0.0
659, 1.44780000, 0.76200000, 0.0
660, 1.48590000, 0.76200000, 0.0
661, 1.52400000, 0.76200000, 0.0
662, 0.00000000, 0.80010000, 0.0
663, 0.07620000, 0.80010000, 0.0
664, 0.15240000, 0.80010000, 0.0
665, 0.22860000, 0.80010000, 0.0
666, 0.30480000, 0.80010000, 0.0
667, 0.38100000, 0.80010000, 0.0
668, 0.45720000, 0.80010000, 0.0
669, 0.53340000, 0.80010000, 0.0
670, 0.60960000, 0.80010000, 0.0
671, 0.68580000, 0.80010000, 0.0
672, 0.76200000, 0.80010000, 0.0
673, 0.83820000, 0.80010000, 0.0
674, 0.91440000, 0.80010000, 0.0
675, 0.99060000, 0.80010000, 0.0
676, 1.06680000, 0.80010000, 0.0
677, 1.14300000, 0.80010000, 0.0
678, 1.21920000, 0.80010000, 0.0
679, 1.29540000, 0.80010000, 0.0
680, 1.37160000, 0.80010000, 0.0
681, 1.44780000, 0.80010000, 0.0
682, 1.52400000, 0.80010000, 0.0
683, 0.00000000, 0.83820000, 0.0
684, 0.03810000, 0.83820000, 0.0
685, 0.07620000, 0.83820000, 0.0
686, 0.11430000, 0.83820000, 0.0
687, 0.15240000, 0.83820000, 0.0
688, 0.19050000, 0.83820000, 0.0
689, 0.22860000, 0.83820000, 0.0
690, 0.26670000, 0.83820000, 0.0
691, 0.30480000, 0.83820000, 0.0
692, 0.34290000, 0.83820000, 0.0
693, 0.38100000, 0.83820000, 0.0
694, 0.41910000, 0.83820000, 0.0
695, 0.45720000, 0.83820000, 0.0
696, 0.49530000, 0.83820000, 0.0
697, 0.53340000, 0.83820000, 0.0
698, 0.57150000, 0.83820000, 0.0
699, 0.60960000, 0.83820000, 0.0
700, 0.64770000, 0.83820000, 0.0
701, 0.68580000, 0.83820000, 0.0
702, 0.72390000, 0.83820000, 0.0
703, 0.76200000, 0.83820000, 0.0
704, 0.80010000, 0.83820000, 0.0
705, 0.83820000, 0.83820000, 0.0
706, 0.87630000, 0.83820000, 0.0
707, 0.91440000, 0.83820000, 0.0
708, 0.95250000, 0.83820000, 0.0
709, 0.99060000, 0.83820000, 0.0
710, 1.02870000, 0.83820000, 0.0
711, 1.06680000, 0.83820000, 0.0
712, 1.10490000, 0.83820000, 0.0
713, 1.14300000, 0.83820000, 0.0
714, 1.18110000, 0.83820000, 0.0
715, 1.21920000, 0.83820000, 0.0
716, 1.25730000, 0.83820000, 0.0
717, 1.29540000, 0.83820000, 0.0
718, 1.33350000, 0.83820000, 0.0
719, 1.37160000, 0.83820000, 0.0
720, 1.40970000, 0.83820000, 0.0
721, 1.44780000, 0.83820000, 0.0
722, 1.48590000, 0.83820000, 0.0
723, 1.52400000, 0.83820000, 0.0
724, 0.00000000, 0.87630000, 0.0
725, 0.07620000, 0.87630000, 0.0
726, 0.15240000, 0.87630000, 0.0
727, 0.22860000, 0.87630000, 0.0
728, 0.30480000, 0.87630000, 0.0
729, 0.38100000, 0.87630000, 0.0
730, 0.45720000, 0.87630000, 0.0
731, 0.53340000, 0.87630000, 0.0
732, 0.60960000, 0.87630000, 0.0
733, 0.68580000, 0.87630000, 0.0
734, 0.76200000, 0.87630000, 0.0
735, 0.83820000, 0.87630000, 0.0
736, 0.91440000, 0.87630000, 0.0
737, 0.99060000, 0.87630000, 0.0
738, 1.06680000, 0.87630000, 0.0
739, 1.14300000, 0.87630000, 0.0
740, 1.21920000, 0.87630000, 0.0
741, 1.29540000, 0.87630000, 0.0
742, 1.37160000, 0.87630000, 0.0
743, 1.44780000, 0.87630000, 0.0
744, 1.52400000, 0.87630000, 0.0
745, 0.00000000, 0.91440000, 0.0
746, 0.03810000, 0.91440000, 0.0
747, 0.07620000, 0.91440000, 0.0
748, 0.11430000, 0.91440000, 0.0
749, 0.15240000, 0.91440000, 0.0
750, 0.19050000, 0.91440000, 0.0
751, 0.22860000, 0.91440000, 0.0
752, 0.26670000, 0.91440000, 0.0
753, 0.30480000, 0.91440000, 0.0
754, 0.34290000, 0.91440000, 0.0
755, 0.38100000, 0.91440000, 0.0
756, 0.41910000, 0.91440000, 0.0
757, 0.45720000, 0.91440000, 0.0
758, 0.49530000, 0.91440000, 0.0
759, 0.53340000, 0.91440000, 0.0
760, 0.57150000, 0.91440000, 0.0
761, 0.60960000, 0.91440000, 0.0
762, 0.64770000, 0.91440000, 0.0
763, 0.68580000, 0.91440000, 0.0
764, 0.72390000, 0.91440000, 0.0
765, 0.76200000, 0.91440000, 0.0
766, 0.80010000, 0.91440000, 0.0
767, 0.83820000, 0.91440000, 0.0
768, 0.87630000, 0.91440000, 0.0
769, 0.91440000, 0.91440000, 0.0
770, 0.95250000, 0.91440000, 0.0
771, 0.99060000, 0.91440000, 0.0
772, 1.02870000, 0.91440000, 0.0
773, 1.06680000, 0.91440000, 0.0
774, 1.10490000, 0.91440000, 0.0
775, 1.14300000, 0.91440000, 0.0
776, 1.18110000, 0.91440000, 0.0
777, 1.21920000, 0.91440000, 0.0
778, 1.25730000, 0.91440000, 0.0
779, 1.29540000, 0.91440000, 0.0
780, 1.33350000, 0.91440000, 0.0
781, 1.37160000, 0.91440000, 0.0
782, 1.40970000, 0.91440000, 0.0
783, 1.44780000, 0.91440000, 0.0
784, 1.48590000, 0.91440000, 0.0
785, 1.52400000, 0.91440000, 0.0
786, 0.00000000, 0.95250000, 0.0
787, 0.07620000, 0.95250000, 0.0
788, 0.15240000, 0.95250000, 0.0
789, 0.22860000, 0.95250000, 0.0
790, 0.30480000, 0.95250000, 0.0
791, 0.38100000, 0.95250000, 0.0
792, 0.45720000, 0.95250000, 0.0
793, 0.53340000, 0.95250000, 0.0
794, 0.60960000, 0.95250000, 0.0
795, 0.68580000, 0.95250000, 0.0
796, 0.76200000, 0.95250000, 0.0
797, 0.83820000, 0.95250000, 0.0
798, 0.91440000, 0.95250000, 0.0
799, 0.99060000, 0.95250000, 0.0
800, 1.06680000, 0.95250000, 0.0
801, 1.14300000, 0.95250000, 0.0
802, 1.21920000, 0.95250000, 0.0
803, 1.29540000, 0.95250000, 0.0
804, 1.37160000, 0.95250000, 0.0
805, 1.44780000, 0.95250000, 0.0
806, 1.52400000, 0.95250000, 0.0
807, 0.00000000, 0.99060000, 0.0
808, 0.03810000, 0.99060000, 0.0
809, 0.07620000, 0.99060000, 0.0
810, 0.11430000, 0.99060000, 0.0
811, 0.15240000, 0.99060000, 0.0
812, 0.19050000, 0.99060000, 0.0
813, 0.22860000, 0.99060000, 0.0
814, 0.26670000, 0.99060000, 0.0
815, 0.30480000, 0.99060000, 0.0
816, 0.34290000, 0.99060000, 0.0
817, 0.38100000, 0.99060000, 0.0
818, 0.41910000, 0.99060000, 0.0
819, 0.45720000, 0.99060000, 0.0
820, 0.49530000, 0.99060000, 0.0
821, 0.53340000, 0.99060000, 0.0
822, 0.57150000, 0.99060000, 0.0
823, 0.60960000, 0.99060000, 0.0
824, 0.64770000, 0.99060000, 0.0
825, 0.68580000, 0.99060000, 0.0
826, 0.72390000, 0.99060000, 0.0
827, 0.76200000, 0.99060000, 0.0
828, 0.80010000, 0.99060000, 0.0
829, 0.83820000, 0.99060000, 0.0
830, 0.87630000, 0.99060000, 0.0
831, 0.91440000, 0.99060000, 0.0
832, 0.95250000, 0.99060000, 0.0
833, 0.99060000, 0.99060000, 0.0
834, 1.02870000, 0.99060000, 0.0
835, 1.06680000, 0.99060000, 0.0
836, 1.10490000, 0.99060000, 0.0
837, 1.14300000, 0.99060000, 0.0
838, 1.18110000, 0.99060000, 0.0
839, 1.21920000, 0.99060000, 0.0
840, 1.25730000, 0.99060000, 0.0
841, 1.29540000, 0.99060000, 0.0
842, 1.33350000, 0.99060000, 0.0
843, 1.37160000, 0.99060000, 0.0
844, 1.40970000, 0.99060000, 0.0
845, 1.44780000, 0.99060000, 0.0
846, 1.48590000, 0.99060000, 0.0
847, 1.52400000, 0.99060000, 0.0
848, 0.00000000, 1.02870000, 0.0
849, 0.07620000, 1.02870000, 0.0
850, 0.15240000, 1.02870000, 0.0
851, 0.22860000, 1.02870000, 0.0
852, 0.30480000, 1.02870000, 0.0
853, 0.38100000, 1.02870000, 0.0
854, 0.45720000, 1.02870000, 0.0
855, 0.53340000, 1.02870000, 0.0
856, 0.60960000, 1.02870000, 0.0
857, 0.68580000, 1.02870000, 0.0
858, 0.76200000, 1.02870000, 0.0
859, 0.83820000, 1.02870000, 0.0
860, 0.91440000, 1.02870000, 0.0
861, 0.99060000, 1.02870000, 0.0
862, 1.06680000, 1.02870000, 0.0
863, 1.14300000, 1.02870000, 0.0
864, 1.21920000, 1.02870000, 0.0
865, 1.29540000, 1.02870000, 0.0
866, 1.37160000, 1.02870000, 0.0
867, 1.44780000, 1.02870000, 0.0
868, 1.52400000, 1.02870000, 0.0
869, 0.00000000, 1.06680000, 0.0
870, 0.03810000, 1.06680000, 0.0
871, 0.07620000, 1.06680000, 0.0
872, 0.11430000, 1.06680000, 0.0
873, 0.15240000, 1.06680000, 0.0
874, 0.19050000, 1.06680000, 0.0
875, 0.22860000, 1.06680000, 0.0
876, 0.26670000, 1.06680000, 0.0
877, 0.30480000, 1.06680000, 0.0
878, 0.34290000, 1.06680000, 0.0
879, 0.38100000, 1.06680000, 0.0
880, 0.41910000, 1.06680000, 0.0
881, 0.45720000, 1.06680000, 0.0
882, 0.49530000, 1.06680000, 0.0
883, 0.53340000, 1.06680000, 0.0
884, 0.57150000, 1.06680000, 0.0
885, 0.60960000, 1.06680000, 0.0
886, 0.64770000, 1.06680000, 0.0
887, 0.68580000, 1.06680000, 0.0
888, 0.72390000, 1.06680000, 0.0
889, 0.76200000, 1.06680000, 0.0
890, 0.80010000, 1.06680000, 0.0
891, 0.83820000, 1.06680000, 0.0
892, 0.87630000, 1.06680000, 0.0
893, 0.91440000, 1.06680000, 0.0
894, 0.95250000, 1.06680000, 0.0
895, 0.99060000, 1.06680000, 0.0
896, 1.02870000, 1.06680000, 0.0
897, 1.06680000, 1.06680000, 0.0
898, 1.10490000, 1.06680000, 0.0
899, 1.14300000, 1.06680000, 0.0
900, 1.18110000, 1.06680000, 0.0
901, 1.21920000, 1.06680000, 0.0
902, 1.25730000, 1.06680000, 0.0
903, 1.29540000, 1.06680000, 0.0
904, 1.33350000, 1.06680000, 0.0
905, 1.37160000, 1.06680000, 0.0
906, 1.40970000, 1.06680000, 0.0
907, 1.44780000, 1.06680000, 0.0
908, 1.48590000, 1.06680000, 0.0
909, 1.52400000, 1.06680000, 0.0
910, 0.00000000, 1.10490000, 0.0
911, 0.07620000, 1.10490000, 0.0
912, 0.15240000, 1.10490000, 0.0
913, 0.22860000, 1.10490000, 0.0
914, 0.30480000, 1.10490000, 0.0
915, 0.38100000, 1.10490000, 0.0
916, 0.45720000, 1.10490000, 0.0
917, 0.53340000, 1.10490000, 0.0
918, 0.60960000, 1.10490000, 0.0
919, 0.68580000, 1.10490000, 0.0
920, 0.76200000, 1.10490000, 0.0
921, 0.83820000, 1.10490000, 0.0
922, 0.91440000, 1.10490000, 0.0
923, 0.99060000, 1.10490000, 0.0
924, 1.06680000, 1.10490000, 0.0
925, 1.14300000, 1.10490000, 0.0
926, 1.21920000, 1.10490000, 0.0
927, 1.29540000, 1.10490000, 0.0
928, 1.37160000, 1.10490000, 0.0
929, 1.44780000, 1.10490000, 0.0
930, 1.52400000, 1.10490000, 0.0
931, 0.00000000, 1.14300000, 0.0
932, 0.03810000, 1.14300000, 0.0
933, 0.07620000, 1.14300000, 0.0
934, 0.11430000, 1.14300000, 0.0
935, 0.15240000, 1.14300000, 0.0
936, 0.19050000, 1.14300000, 0.0
937, 0.22860000, 1.14300000, 0.0
938, 0.26670000, 1.14300000, 0.0
939, 0.30480000, 1.14300000, 0.0
940, 0.34290000, 1.14300000, 0.0
941, 0.38100000, 1.14300000, 0.0
942, 0.41910000, 1.14300000, 0.0
943, 0.45720000, 1.14300000, 0.0
944, 0.49530000, 1.14300000, 0.0
945, 0.53340000, 1.14300000, 0.0
946, 0.57150000, 1.14300000, 0.0
947, 0.60960000, 1.14300000, 0.0
948, 0.64770000, 1.14300000, 0.0
949, 0.68580000, 1.14300000, 0.0
950, 0.72390000, 1.14300000, 0.0
951, 0.76200000, 1.14300000, 0.0
952, 0.80010000, 1.14300000, 0.0
953, 0.83820000, 1.14300000, 0.0
954, 0.87630000, 1.14300000, 0.0
955, 0.91440000, 1.14300000, 0.0
956, 0.95250000, 1.14300000, 0.0
957, 0.99060000, 1.14300000, 0.0
958, 1.02870000, 1.14300000, 0.0
959, 1.06680000, 1.14300000, 0.0
960, 1.10490000, 1.14300000, 0.0
961, 1.14300000, 1.14300000, 0.0
962, 1.18110000, 1.14300000, 0.0
963, 1.21920000, 1.14300000, 0.0
964, 1.25730000, 1.14300000, 0.0
965, 1.29540000, 1.14300000, 0.0
966, 1.33350000, 1.14300000, 0.0
967, 1.37160000, 1.14300000, 0.0
968, 1.40970000, 1.14300000, 0.0
969, 1.44780000, 1.14300000, 0.0
970, 1.48590000, 1.14300000, 0.0
971, 1.52400000, 1.14300000, 0.0
972, 0.00000000, 1.18110000, 0.0
973, 0.07620000, 1.18110000, 0.0
974, 0.15240000, 1.18110000, 0.0
975, 0.22860000, 1.18110000, 0.0
976, 0.30480000, 1.18110000, 0.0
977, 0.38100000, 1.18110000, 0.0
978, 0.45720000, 1.18110000, 0.0
979, 0.53340000, 1.18110000, 0.0
980, 0.60960000, 1.18110000, 0.0
981, 0.68580000, 1.18110000, 0.0
982, 0.76200000, 1.18110000, 0.0
983, 0.83820000, 1.18110000, 0.0
984, 0.91440000, 1.18110000, 0.0
985, 0.99060000, 1.18110000, 0.0
986, 1.06680000, 1.18110000, 0.0
987, 1.14300000, 1.18110000, 0.0
988, 1.21920000, 1.18110000, 0.0
989, 1.29540000, 1.18110000, 0.0
990, 1.37160000, 1.18110000, 0.0
991, 1.44780000, 1.18110000, 0.0
992, 1.52400000, 1.18110000, 0.0
993, 0.00000000, 1.21920000, 0.0
994, 0.03810000, 1.21920000, 0.0
995, 0.07620000, 1.21920000, 0.0
996, 0.11430000, 1.21920000, 0.0
997, 0.15240000, 1.21920000, 0.0
998, 0.19050000, 1.21920000, 0.0
999, 0.22860000, 1.21920000, 0.0
1000, 0.26670000, 1.21920000, 0.0
1001, 0.30480000, 1.21920000, 0.0
1002, 0.34290000, 1.21920000, 0.0
1003, 0.38100000, 1.21920000, 0.0
1004, 0.41910000, 1.21920000, 0.0
1005, 0.45720000, 1.21920000, 0.0
1006, 0.49530000, 1.21920000, 0.0
1007, 0.53340000, 1.21920000, 0.0
1008, 0.57150000, 1.21920000, 0.0
1009, 0.60960000, 1.21920000, 0.0
1010, 0.64770000, 1.21920000, 0.0
1011, 0.68580000, 1.21920000, 0.0
1012, 0.72390000, 1.21920000, 0.0
1013, 0.76200000, 1.21920000, 0.0
1014, 0.80010000, 1.21920000, 0.0
1015, 0.83820000, 1.21920000, 0.0
1016, 0.87630000, 1.21920000, 0.0
1017, 0.91440000, 1.21920000, 0.0
1018, 0.95250000, 1.21920000, 0.0
1019, 0.99060000, 1.21920000, 0.0
1020, 1.02870000, 1.21920000, 0.0
1021, 1.06680000, 1.21920000, 0.0
1022, 1.10490000, 1.21920000, 0.0
1023, 1.14300000, 1.21920000, 0.0
1024, 1.18110000, 1.21920000, 0.0
1025, 1.21920000, 1.21920000, 0.0
1026, 1.25730000, 1.21920000, 0.0
1027, 1.29540000, 1.21920000, 0.0
1028, 1.33350000, 1.21920000, 0.0
1029, 1.37160000, 1.21920000, 0.0
1030, 1.40970000, 1.21920000, 0.0
1031, 1.44780000, 1.21920000, 0.0
1032, 1.48590000, 1.21920000, 0.0
1033, 1.52400000, 1.21920000, 0.0
1034, 0.00000000, 1.25730000, 0.0
1035, 0.07620000, 1.25730000, 0.0
1036, 0.15240000, 1.25730000, 0.0
1037, 0.22860000, 1.25730000, 0.0
1038, 0.30480000, 1.25730000, 0.0
1039, 0.38100000, 1.25730000, 0.0
1040, 0.45720000, 1.25730000, 0.0
1041, 0.53340000, 1.25730000, 0.0
1042, 0.60960000, 1.25730000, 0.0
1043, 0.68580000, 1.25730000, 0.0
1044, 0.76200000, 1.25730000, 0.0
1045, 0.83820000, 1.25730000, 0.0
1046, 0.91440000, 1.25730000, 0.0
1047, 0.99060000, 1.25730000, 0.0
1048, 1.06680000, 1.25730000, 0.0
1049, 1.14300000, 1.25730000, 0.0
1050, 1.21920000, 1.25730000, 0.0
1051, 1.29540000, 1.25730000, 0.0
1052, 1.37160000, 1.25730000, 0.0
1053, 1.44780000, 1.25730000, 0.0
1054, 1.52400000, 1.25730000, 0.0
1055, 0.00000000, 1.29540000, 0.0
1056, 0.03810000, 1.29540000, 0.0
1057, 0.07620000, 1.29540000, 0.0
1058, 0.11430000, 1.29540000, 0.0
1059, 0.15240000, 1.29540000, 0.0
1060, 0.19050000, 1.29540000, 0.0
1061, 0.22860000, 1.29540000, 0.0
1062, 0.26670000, 1.29540000, 0.0
1063, 0.30480000, 1.29540000, 0.0
1064, 0.34290000, 1.29540000, 0.0
1065, 0.38100000, 1.29540000, 0.0
1066, 0.41910000, 1.29540000, 0.0
1067, 0.45720000, 1.29540000, 0.0
1068, 0.49530000, 1.29540000, 0.0
1069, 0.53340000, 1.29540000, 0.0
1070, 0.57150000, 1.29540000, 0.0
1071, 0.60960000, 1.29540000, 0.0
1072, 0.64770000, 1.29540000, 0.0
1073, 0.68580000, 1.29540000, 0.0
1074, 0.72390000, 1.29540000, 0.0
1075, 0.76200000, 1.29540000, 0.0
1076, 0.80010000, 1.29540000, 0.0
1077, 0.83820000, 1.29540000, 0.0
1078, 0.87630000, 1.29540000, 0.0
1079, 0.91440000, 1.29540000, 0.0
1080, 0.95250000, 1.29540000, 0.0
1081, 0.99060000, 1.29540000, 0.0
1082, 1.02870000, 1.29540000, 0.0
1083, 1.06680000, 1.29540000, 0.0
1084, 1.10490000, 1.29540000, 0.0
1085, 1.14300000, 1.29540000, 0.0
1086, 1.18110000, 1.29540000, 0.0
1087, 1.21920000, 1.29540000, 0.0
1088, 1.25730000, 1.29540000, 0.0
1089, 1.29540000, 1.29540000, 0.0
1090, 1.33350000, 1.29540000, 0.0
1091, 1.37160000, 1.29540000, 0.0
1092, 1.40970000, 1.29540000, 0.0
1093, 1.44780000, 1.29540000, 0.0
1094, 1.48590000, 1.29540000, 0.0
1095, 1.52400000, 1.29540000, 0.0
1096, 0.00000000, 1.33350000, 0.0
1097, 0.07620000, 1.33350000, 0.0
1098, 0.15240000, 1.33350000, 0.0
1099, 0.22860000, 1.33350000, 0.0
1100, 0.30480000, 1.33350000, 0.0
1101, 0.38100000, 1.33350000, 0.0
1102, 0.45720000, 1.33350000, 0.0
1103, 0.53340000, 1.33350000, 0.0
1104, 0.60960000, 1.33350000, 0.0
1105, 0.68580000, 1.33350000, 0.0
1106, 0.76200000, 1.33350000, 0.0
1107, 0.83820000, 1.33350000, 0.0
1108, 0.91440000, 1.33350000, 0.0
1109, 0.99060000, 1.33350000, 0.0
1110, 1.06680000, 1.33350000, 0.0
1111, 1.14300000, 1.33350000, 0.0
1112, 1.21920000, 1.33350000, 0.0
1113, 1.29540000, 1.33350000, 0.0
1114, 1.37160000, 1.33350000, 0.0
1115, 1.44780000, 1.33350000, 0.0
1116, 1.52400000, 1.33350000, 0.0
1117, 0.00000000, 1.37160000, 0.0
1118, 0.03810000, 1.37160000, 0.0
1119, 0.07620000, 1.37160000, 0.0
1120, 0.11430000, 1.37160000, 0.0
1121, 0.15240000, 1.37160000, 0.0
1122, 0.19050000, 1.37160000, 0.0
1123, 0.22860000, 1.37160000, 0.0
1124, 0.26670000, 1.37160000, 0.0
1125, 0.30480000, 1.37160000, 0.0
1126, 0.34290000, 1.37160000, 0.0
1127, 0.38100000, 1.37160000, 0.0
1128, 0.41910000, 1.37160000, 0.0
1129, 0.45720000, 1.37160000, 0.0
1130, 0.49530000, 1.37160000, 0.0
1131, 0.53340000, 1.37160000, 0.0
1132, 0.57150000, 1.37160000, 0.0
1133, 0.60960000, 1.37160000, 0.0
1134, 0.64770000, 1.37160000, 0.0
1135, 0.68580000, 1.37160000, 0.0
1136, 0.72390000, 1.37160000, 0.0
1137, 0.76200000, 1.37160000, 0.0
1138, 0.80010000, 1.37160000, 0.0
1139, 0.83820000, 1.37160000, 0.0
1140, 0.87630000, 1.37160000, 0.0
1141, 0.91440000, 1.37160000, 0.0
1142, 0.95250000, 1.37160000, 0.0
1143, 0.99060000, 1.37160000, 0.0
1144, 1.02870000, 1.37160000, 0.0
1145, 1.06680000, 1.37160000, 0.0
1146, 1.10490000, 1.37160000, 0.0
1147, 1.14300000, 1.37160000, 0.0
1148, 1.18110000, 1.37160000, 0.0
1149, 1.21920000, 1.37160000, 0.0
1150, 1.25730000, 1.37160000, 0.0
1151, 1.29540000, 1.37160000, 0.0
1152, 1.33350000, 1.37160000, 0.0
1153, 1.37160000, 1.37160000, 0.0
1154, 1.40970000, 1.37160000, 0.0
1155, 1.44780000, 1.37160000, 0.0
1156, 1.48590000, 1.37160000, 0.0
1157, 1.52400000, 1.37160000, 0.0
1158, 0.00000000, 1.40970000, 0.0
1159, 0.07620000, 1.40970000, 0.0
1160, 0.15240000, 1.40970000, 0.0
1161, 0.22860000, 1.40970000, 0.0
1162, 0.30480000, 1.40970000, 0.0
1163, 0.38100000, 1.40970000, 0.0
1164, 0.45720000, 1.40970000, 0.0
1165, 0.53340000, 1.40970000, 0.0
1166, 0.60960000, 1.40970000, 0.0
1167, 0.68580000, 1.40970000, 0.0
1168, 0.76200000, 1.40970000, 0.0
1169, 0.83820000, 1.40970000, 0.0
1170, 0.91440000, 1.40970000, 0.0
1171, 0.99060000, 1.40970000, 0.0
1172, 1.06680000, 1.40970000, 0.0
1173, 1.14300000, 1.40970000, 0.0
1174, 1.21920000, 1.40970000, 0.0
1175, 1.29540000, 1.40970000, 0.0
1176, 1.37160000, 1.40970000, 0.0
1177, 1.44780000, 1.40970000, 0.0
1178, 1.52400000, 1.40970000, 0.0
1179, 0.00000000, 1.44780000, 0.0
1180, 0.03810000, 1.44780000, 0.0
1181, 0.07620000, 1.44780000, 0.0
1182, 0.11430000, 1.44780000, 0.0
1183, 0.15240000, 1.44780000, 0.0
1184, 0.19050000, 1.44780000, 0.0
1185, 0.22860000, 1.44780000, 0.0
1186, 0.26670000, 1.44780000, 0.0
1187, 0.30480000, 1.44780000, 0.0
1188, 0.34290000, 1.44780000, 0.0
1189, 0.38100000, 1.44780000, 0.0
1190, 0.41910000, 1.44780000, 0.0
1191, 0.45720000, 1.44780000, 0.0
1192, 0.49530000, 1.44780000, 0.0
1193, 0.53340000, 1.44780000, 0.0
1194, 0.57150000, 1.44780000, 0.0
1195, 0.60960000, 1.44780000, 0.0
1196, 0.64770000, 1.44780000, 0.0
1197, 0.68580000, 1.44780000, 0.0
1198, 0.72390000, 1.44780000, 0.0
1199, 0.76200000, 1.44780000, 0.0
1200, 0.80010000, 1.44780000, 0.0
1201, 0.83820000, 1.44780000, 0.0
1202, 0.87630000, 1.44780000, 0.0
1203, 0.91440000, 1.44780000, 0.0
1204, 0.95250000, 1.44780000, 0.0
1205, 0.99060000, 1.44780000, 0.0
1206, 1.02870000, 1.44780000, 0.0
1207, 1.06680000, 1.44780000, 0.0
1208, 1.10490000, 1.44780000, 0.0
1209, 1.14300000, 1.44780000, 0.0
1210, 1.18110000, 1.44780000, 0.0
1211, 1.21920000, 1.44780000, 0.0
1212, 1.25730000, 1.44780000, 0.0
1213, 1.29540000, 1.44780000, 0.0
1214, 1.33350000, 1.44780000, 0.0
1215, 1.37160000, 1.44780000, 0.0
1216, 1.40970000, 1.44780000, 0.0
1217, 1.44780000, 1.44780000, 0.0
1218, 1.48590000, 1.44780000, 0.0
1219, 1.52400000, 1.44780000, 0.0
1220, 0.00000000, 1.48590000, 0.0
1221, 0.07620000, 1.48590000, 0.0
1222, 0.15240000, 1.48590000, 0.0
1223, 0.22860000, 1.48590000, 0.0
1224, 0.30480000, 1.48590000, 0.0
1225, 0.38100000, 1.48590000, 0.0
1226, 0.45720000, 1.48590000, 0.0
1227, 0.53340000, 1.48590000, 0.0
1228, 0.60960000, 1.48590000, 0.0
1229, 0.68580000, 1.48590000, 0.0
1230, 0.76200000, 1.48590000, 0.0
1231, 0.83820000, 1.48590000, 0.0
1232, 0.91440000, 1.48590000, 0.0
1233, 0.99060000, 1.48590000, 0.0
1234, 1.06680000, 1.48590000, 0.0
1235, 1.14300000, 1.48590000, 0.0
1236, 1.21920000, 1.48590000, 0.0
1237, 1.29540000, 1.48590000, 0.0
1238, 1.37160000, 1.48590000, 0.0
1239, 1.44780000, 1.48590000, 0.0
1240, 1.52400000, 1.48590000, 0.0
1241, 0.00000000, 1.52400000, 0.0
1242, 0.03810000, 1.52400000, 0.0
1243, 0.07620000, 1.52400000, 0.0
1244, 0.11430000, 1.52400000, 0.0
1245, 0.15240000, 1.52400000, 0.0
1246, 0.19050000, 1.52400000, 0.0
1247, 0.22860000, 1.52400000, 0.0
1248, 0.26670000, 1.52400000, 0.0
1249, 0.30480000, 1.52400000, 0.0
1250, 0.34290000, 1.52400000, 0.0
1251, 0.38100000, 1.52400000, 0.0
1252, 0.41910000, 1.52400000, 0.0
1253, 0.45720000, 1.52400000, 0.0
1254, 0.49530000, 1.52400000, 0.0
1255, 0.53340000, 1.52400000, 0.0
1256, 0.57150000, 1.52400000, 0.0
1257, 0.60960000, 1.52400000, 0.0
1258, 0.64770000, 1.52400000, 0.0
1259, 0.68580000, 1.52400000, 0.0
1260, 0.72390000, 1.52400000, 0.0
1261, 0.76200000, 1.52400000, 0.0
1262, 0.80010000, 1.52400000, 0.0
1263, 0.83820000, 1.52400000, 0.0
1264, 0.87630000, 1.52400000, 0.0
1265, 0.91440000, 1.52400000, 0.0
1266, 0.95250000, 1.52400000, 0.0
1267, 0.99060000, 1.52400000, 0.0
1268, 1.02870000, 1.52400000, 0.0
1269, 1.06680000, 1.52400000, 0.0
1270, 1.10490000, 1.52400000, 0.0
1271, 1.14300000, 1.52400000, 0.0
1272, 1.18110000, 1.52400000, 0.0
1273, 1.21920000, 1.52400000, 0.0
1274, 1.25730000, 1.52400000, 0.0
1275, 1.29540000, 1.52400000, 0.0
1276, 1.33350000, 1.52400000, 0.0
1277, 1.37160000, 1.52400000, 0.0
1278, 1.40970000, 1.52400000, 0.0
1279, 1.44780000, 1.52400000, 0.0
1280, 1.48590000, 1.52400000, 0.0
1281, 1.52400000, 1.52400000, 0.0
*ELEMENT, TYPE=S8R, ELSET=EALL
1, 1, 3, 65, 63, 2, 43, 64, 42
2, 3, 5, 67, 65, 4, 44, 66, 43
3, 5, 7, 69, 67, 6, 45, 68, 44
4, 7, 9, 71, 69, 8, 46, 70, 45
5, 9, 11, 73, 71, 10, 47, 72, 46
6, 11, 13, 75, 73, 12, 48, 74, 47
7, 13, 15, 77, 75, 14, 49, 76, 48
8, 15, 17, 79, 77, 16, 50, 78, 49
9, 17, 19, 81, 79, 18, 51, 80, 50
10, 19, 21, 83, 81, 20, 52, 82, 51
11, 21, 23, 85, 83, 22, 53, 84, 52
12, 23, 25, 87, 85, 24, 54, 86, 53
13, 25, 27, 89, 87, 26, 55, 88, 54
14, 27, 29, 91, 89, 28, 56, 90, 55
15, 29, 31, 93, 91, 30, 57, 92, 56
16, 31, 33, 95, 93, 32, 58, 94, 57
17, 33, 35, 97, 95, 34, 59, 96, 58
18, 35, 37, 99, 97, 36, 60, 98, 59
19, 37, 39, 101, 99, 38, 61, 100, 60
20, 39, 41, 103, 101, 40, 62, 102, 61
21, 63, 65, 127, 125, 64, 105, 126, 104
22, 65, 67, 129, 127, 66, 106, 128, 105
23, 67, 69, 131, 129, 68, 107, 130, 106
24, 69, 71, 133, 131, 70, 108, 132, 107
25, 71, 73, 135, 133, 72, 109, 134, 108
26, 73, 75, 137, 135, 74, 110, 136, 109
27, 75, 77, 139, 137, 76, 111, 138, 110
28, 77, 79, 141, 139, 78, 112, 140, 111
29, 79, 81, 143, 141, 80, 113, 142, 112
30, 81, 83, 145, 143, 82, 114, 144, 113
31, 83, 85, 147, 145, 84, 115, 146, 114
32, 85, 87, 149, 147, 86, 116, 148, 115
33, 87, 89, 151, 149, 88, 117, 150, 116
34, 89, 91, 153, 151, 90, 118, 152, 117
35, 91, 93, 155, 153, 92, 119, 154, 118
36, 93, 95, 157, 155, 94, 120, 156, 119
37, 95, 97, 159, 157, 96, 121, 158, 120
38, 97, 99, 161, 159, 98, 122, 160, 121
39, 99, 101, 163, 161, 100, 123, 162, 122
40, 101, 103, 165, 163, 102, 124, 164, 123
41, 125, 127, 189, 187, 126, 167, 188, 166
42, 127, 129, 191, 189, 128, 168, 190, 167
43, 129, 131, 193, 191, 130, 169, 192, 168
44, 131, 133, 195, 193, 132, 170, 194, 169
45, 133, 135, 197, 195, 134, 171, 196, 170
46, 135, 137, 199, 197, 136, 172, 198, 171
47, 137, 139, 201, 199, 138, 173, 200, 172
48, 139, 141, 203, 201, 140, 174, 202, 173
49, 141, 143, 205, 203, 142, 175, 204, 174
50, 143, 145, 207, 205, 144, 176, 206, 175
51, 145, 147, 209, 207, 146, 177, 208, 176
52, 147, 149, 211, 209, 148, 178, 210, 177
53, 149, 151, 213, 211, 150, 179, 212, 178
54, 151, 153, 215, 213, 152, 180, 214, 179
55, 153, 155, 217, 215, 154, 181, 216, 180
56, 155, 157, 219, 217, 156, 182, 218, 181
57, 157, 159, 221, 219, 158, 183, 220, 182
58, 159, 161, 223, 221, 160, 184, 222, 183
59, 161, 163, 225, 223, 162, 185, 224, 184
60, 163, 165, 227, 225, 164, 186, 226, 185
61, 187, 189, 251, 249, 188, 229, 250, 228
62, 189, 191, 253, 251, 190, 230, 252, 229
63, 191, 193, 255, 253, 192, 231, 254, 230
64, 193, 195, 257, 255, 194, 232, 256, 231
65, 195, 197, 259, 257, 196, 233, 258, 232
66, 197, 199, 261, 259, 198, 234, 260, 233
67, 199, 201, 263, 261, 200, 235, 262, 234
68, 201, 203, 265, 263, 202, 236, 264, 235
69, 203, 205, 267, 265, 204, 237, 266, 236
70, 205, 207, 269, 267, 206, 238, 268, 237
71, 207, 209, 271, 269, 208, 239, 270, 238
72, 209, 211, 273, 271, 210, 240, 272, 239
73, 211, 213, 275, 273, 212, 241, 274, 240
74, 213, 215, 277, 275, 214, 242, 276, 241
75, 215, 217, 279, 277, 216, 243, 278, 242
76, 217, 219, 281, 279, 218, 244, 280, 243
77, 219, 221, 283, 281, 220, 245, 282, 244
78, 221, 223, 285, 283, 222, 246, 284, 245
79, 223, 225, 287, 285, 224, 247, 286, 246
80, 225, 227, 289, 287, 226, 248, 288, 247
81, 249, 251, 313, 311, 250, 291, 312, 290
82, 251, 253, 315, 313, 252, 292, 314, 291
83, 253, 255, 317, 315, 254, 293, 316, 292
84, 255, 257, 319, 317, 256, 294, 318, 293
85, 257, 259, 321, 319, 258, 295, 320, 294
86, 259, 261, 323, 321, 260, 296, 322, 295
87, 261, 263, 325, 323, 262, 297, 324, 296
88, 263, 265, 327, 325, 264, 298, 326, 297
89, 265, 267, 329, 327, 266, 299, 328, 298
90, 267, 269, 331, 329, 268, 300, 330, 299
91, 269, 271, 333, 331, 270, 301, 332, 300
92, 271, 273, 335, 333, 272, 302, 334, 301
93, 273, 275, 337, 335, 274, 303, 336, 302
94, 275, 277, 339, 337, 276, 304, 338, 303
95, 277, 279, 341, 339, 278, 305, 340, 304
96, 279, 281, 343, 341, 280, 306, 342, 305
97, 281, 283, 345, 343, 282, 307, 344, 306
98, 283, 285, 347, 345, 284, 308, 346, 307
99, 285, 287, 349, 347, 286, 309, 348, 308
100, 287, 289, 351, 349, 288, 310, 350, 309
101, 311, 313, 375, 373, 312, 353, 374, 352
102, 313, 315, 377, 375, 314, 354, 376, 353
103, 315, 317, 379, 377, 316, 355, 378, 354
104, 317, 319, 381, 379, 318, 356, 380, 355
105, 319, 321, 383, 381, 320, 357, 382, 356
106, 321, 323, 385, 383, 322, 358, 384, 357
107, 323, 325, 387, 385, 324, 359, 386, 358
108, 325, 327, 389, 387, 326, 360, 388, 359
109, 327, 329, 391, 389, 328, 361, 390, 360
110, 329, 331, 393, 391, 330, 362, 392, 361
111, 331, 333, 395, 393, 332, 363, 394, 362
112, 333, 335, 397, 395, 334, 364, 396, 363
113, 335, 337, 399, 397, 336, 365, 398, 364
114, 337, 339, 401, 399, 338, 366, 400, 365
115, 339, 341, 403, 401, 340, 367, 402, 366
116, 341, 343, 405, 403, 342, 368, 404, 367
117, 343, 345, 407, 405, 344, 369, 406, 368
118, 345, 347, 409, 407, 346, 370, 408, 369
119, 347, 349, 411, 409, 348, 371, 410, 370
120, 349, 351, 413, 411, 350, 372, 412, 371
121, 373, 375, 437, 435, 374, 415, 436, 414
122, 375, 377, 439, 437, 376, 416, 438, 415
123, 377, 379, 441, 439, 378, 417, 440, 416
124, 379, 381, 443, 441, 380, 418, 442, 417
125, 381, 383, 445, 443, 382, 419, 444, 418
126, 383, 385, 447, 445, 384, 420, 446, 419
127, 385, 387, 449, 447, 386, 421, 448, 420
128, 387, 389, 451, 449, 388, 422, 450, 421
129, 389, 391, 453, 451, 390, 423, 452, 422
130, 391, 393, 455, 453, 392, 424, 454, 423
131, 393, 395, 457, 455, 394, 425, 456, 424
132, 395, 397, 459, 457, 396, 426, 458, 425
133, 397, 399, 461, 459, 398, 427, 460, 426
134, 399, 401, 463, 461, 400, 428, 462, 427
135, 401, 403, 465, 463, 402, 429, 464, 428
136, 403, 405, 467, 465, 404, 430, 466, 429
137, 405, 407, 469, 467, 406, 431, 468, 430
138, 407, 409, 471, 469, 408, 432, 470, 431
139, 409, 411, 473, 471, 410, 433, 472, 432
140, 411, 413, 475, 473, 412, 434, 474, 433
141, 435, 437, 499, 497, 436, 477, 498, 476
142, 437, 439, 501, 499, 438, 478, 500, 477
143, 439, 441, 503, 501, 440, 479, 502, 478
144, 441, 443, 505, 503, 442, 480, 504, 479
145, 443, 445, 507, 505, 444, 481, 506, 480
146, 445, 447, 509, 507, 446, 482, 508, 481
147, 447, 449, 511, 509, 448, 483, 510, 482
148, 449, 451, 513, 511, 450, 484, 512, 483
149, 451, 453, 515, 513, 452, 485, 514, 484
150, 453, 455, 517, 515, 454, 486, 516, 485
151, 455, 457, 519, 517, 456, 487, 518, 486
152, 457, 459, 521, 519, 458, 488, 520, 487
153, 459, 461, 523, 521, 460, 489, 522, 488
154, 461, 463, 525, 523, 462, 490, 524, 489
155, 463, 465, 527, 525, 464, 491, 526, 490
156, 465, 467, 529, 527, 466, 492, 528, 491
157, 467, 469, 531, 529, 468, 493, 530, 492
158, 469, 471, 533, 531, 470, 494, 532, 493
159, 471, 473, 535, 533, 472, 495, 534, 494
160, 473, 475, 537, 535, 474, 496, 536, 495
161, 497, 499, 561, 559, 498, 539, 560, 538
162, 499, 501, 563, 561, 500, 540, 562, 539
163, 501, 503, 565, 563, 502, 541, 564, 540
164, 503, 505, 567, 565, 504, 542, 566, 541
165, 505, 507, 569, 567, 506, 543, 568, 542
166, 507, 509, 571, 569, 508, 544, 570, 543
167, 509, 511, 573, 571, 510, 545, 572, 544
168, 511, 513, 575, 573, 512, 546, 574, 545
169, 513, 515, 577, 575, 514, 547, 576, 546
170, 515, 517, 579, 577, 516, 548, 578, 547
171, 517, 519, 581, 579, 518, 549, 580, 548
172, 519, 521, 583, 581, 520, 550, 582, 549
173, 521, 523, 585, 583, 522, 551, 584, 550
174, 523, 525, 587, 585, 524, 552, 586, 551
175, 525, 527, 589, 587, 526, 553, 588, 552
176, 527, 529, 591, 589, 528, 554, 590, 553
177, 529, 531, 593, 591, 530, 555, 592, 554
178, 531, 533, 595, 593, 532, 556, 594, 555
179, 533, 535, 597, 595, 534, 557, 596, 556
180, 535, 537, 599, 597, 536, 558, 598, 557
181, 559, 561, 623, 621, 560, 601, 622, 600
182, 561, 563, 625, 623, 562, 602, 624, 601
183, 563, 565, 627, 625, 564, 603, 626, 602
184, 565, 567, 629, 627, 566, 604, 628, 603
185, 567, 569, 631, 629, 568, 605, 630, 604
186, 569, 571, 633, 631, 570, 606, 632, 605
187, 571, 573, 635, 633, 572, 607, 634, 606
188, 573, 575, 637, 635, 574, 608, 636, 607
189, 575, 577, 639, 637, 576, 609, 638, 608
190, 577, 579, 641, 639, 578, 610, 640, 609
191, 579, 581, 643, 641, 580, 611, 642, 610
192, 581, 583, 645, 643, 582, 612, 644, 611
193, 583, 585, 647, 645, 584, 613, 646, 612
194, 585, 587, 649, 647, 586, 614, 648, 613
195, 587, 589, 651, 649, 588, 615, 650, 614
196, 589, 591, 653, 651, 590, 616, 652, 615
197, 591, 593, 655, 653, 592, 617, 654, 616
198, 593, 595, 657, 655, 594, 618, 656, 617
199, 595, 597, 659, 657, 596, 619, 658, 618
200, 597, 599, 661, 659, 598, 620, 660, 619
201, 621, 623, 685, 683, 622, 663, 684, 662
202, 623, 625, 687, 685, 624, 664, 686, 663
203, 625, 627, 689, 687, 626, 665, 688, 664
204, 627, 629, 691, 689, 628, 666, 690, 665
205, 629, 631, 693, 691, 630, 667, 692, 666
206, 631, 633, 695, 693, 632, 668, 694, 667
207, 633, 635, 697, 695, 634, 669, 696, 668
208, 635, 637, 699, 697, 636, 670, 698, 669
209, 637, 639, 701, 699, 638, 671, 700, 670
210, 639, 641, 703, 701, 640, 672, 702, 671
211, 641, 643, 705, 703, 642, 673, 704, 672
212, 643, 645, 707, 705, 644, 674, 706, 673
213, 645, 647, 709, 707, 646, 675, 708, 674
214, 647, 649, 711, 709, 648, 676, 710, 675
215, 649, 651, 713, 711, 650, 677, 712, 676
216, 651, 653, 715, 713, 652, 678, 714, 677
217, 653, 655, 717, 715, 654, 679, 716, 678
218, 655, 657, 719, 717, 656, 680, 718, 679
219, 657, 659, 721, 719, 658, 681, 720, 680
220, 659, 661, 723, 721, 660, 682, 722, 681
221, 683, 685, 747, 745, 684, 725, 746, 724
222, 685, 687, 749, 747, 686, 726, 748, 725
223, 687, 689, 751, 749, 688, 727, 750, 726
224, 689, 691, 753, 751, 690, 728, 752, 727
225, 691, 693, 755, 753, 692, 729, 754, 728
226, 693, 695, 757, 755, 694, 730, 756, 729
227, 695, 697, 759, 757, 696, 731, 758, 730
228, 697, 699, 761, 759, 698, 732, 760, 731
229, 699, 701, 763, 761, 700, 733, 762, 732
230, 701, 703, 765, 763, 702, 734, 764, 733
231, 703, 705, 767, 765, 704, 735, 766, 734
232, 705, 707, 769, 767, 706, 736, 768, 735
233, 707, 709, 771, 769, 708, 737, 770, 736
234, 709, 711, 773, 771, 710, 738, 772, 737
235, 711, 713, 775, 773, 712, 739, 774, 738
236, 713, 715, 777, 775, 714, 740, 776, 739
237, 715, 717, 779, 777, 716, 741, 778, 740
238, 717, 719, 781, 779, 718, 742, 780, 741
239, 719, 721, 783, 781, 720, 743, 782, 742
240, 721, 723, 785, 783, 722, 744, 784, 743
241, 745, 747, 809, 807, 746, 787, 808, 786
242, 747, 749, 811, 809, 748, 788, 810, 787
243, 749, 751, 813, 811, 750, 789, 812, 788
244, 751, 753, 815, 813, 752, 790, 814, 789
245, 753, 755, 817, 815, 754, 791, 816, 790
246, 755, 757, 819, 817, 756, 792, 818, 791
247, 757, 759, 821, 819, 758, 793, 820, 792
248, 759, 761, 823, 821, 760, 794, 822, 793
249, 761, 763, 825, 823, 762, 795, 824, 794
250, 763, 765, 827, 825, 764, 796, 826, 795
251, 765, 767, 829, 827, 766, 797, 828, 796
252, 767, 769, 831, 829, 768, 798, 830, 797
253, 769, 771, 833, 831, 770, 799, 832, 798
254, 771, 773, 835, 833, 772, 800, 834, 799
255, 773, 775, 837, 835, 774, 801, 836, 800
256, 775, 777, 839, 837, 776, 802, 838, 801
257, 777, 779, 841, 839, 778, 803, 840, 802
258, 779, 781, 843, 841, 780, 804, 842, 803
259, 781, 783, 845, 843, 782, 805, 844, 804
260, 783, 785, 847, 845, 784, 806, 846, 805
261, 807, 809, 871, 869, 808, 849, 870, 848
262, 809, 811, 873, 871, 810, 850, 872, 849
263, 811, 813, 875, 873, 812, 851, 874, 850
264, 813, 815, 877, 875, 814, 852, 876, 851
265, 815, 817, 879, 877, 816, 853, 878, 852
266, 817, 819, 881, 879, 818, 854, 880, 853
267, 819, 821, 883, 881, 820, 855, 882, 854
268, 821, 823, 885, 883, 822, 856, 884, 855
269, 823, 825, 887, 885, 824, 857, 886, 856
270, 825, 827, 889, 887, 826, 858, 888, 857
271, 827, 829, 891, 889, 828, 859, 890, 858
272, 829, 831, 893, 891, 830, 860, 892, 859
273, 831, 833, 895, 893, 832, 861, 894, 860
274, 833, 835, 897, 895, 834, 862, 896, 861
275, 835, 837, 899, 897, 836, 863, 898, 862
276, 837, 839, 901, 899, 838, 864, 900, 863
277, 839, 841, 903, 901, 840, 865, 902, 864
278, 841, 843, 905, 903, 842, 866, 904, 865
279, 843, 845, 907, 905, 844, 867, 906, 866
280, 845, 847, 909, 907, 846, 868, 908, 867
281, 869, 871, 933, 931, 870, 911, 932, 910
282, 871, 873, 935, 933, 872, 912, 934, 911
283, 873, 875, 937, 935, 874, 913, 936, 912
284, 875, 877, 939, 937, 876, 914, 938, 913
285, 877, 879, 941, 939, 878, 915, 940, 914
286, 879, 881, 943, 941, 880, 916, 942, 915
287, 881, 883, 945, 943, 882, 917, 944, 916
288, 883, 885, 947, 945, 884, 918, 946, 917
289, 885, 887, 949, 947, 886, 919, 948, 918
290, 887, 889, 951, 949, 888, 920, 950, 919
291, 889, 891, 953, 951, 890, 921, 952, 920
292, 891, 893, 955, 953, 892, 922, 954, 921
293, 893, 895, 957, 955, 894, 923, 956, 922
294, 895, 897, 959, 957, 896, 924, 958, 923
295, 897, 899, 961, 959, 898, 925, 960, 924
296, 899, 901, 963, 961, 900, 926, 962, 925
297, 901, 903, 965, 963, 902, 927, 964, 926
298, 903, 905, 967, 965, 904, 928, 966, 927
299, 905, 907, 969, 967, 906, 929, 968, 928
300, 907, 909, 971, 969, 908, 930, 970, 929
301, 931, 933, 995, 993, 932, 973, 994, 972
302, 933, 935, 997, 995, 934, 974, 996, 973
303, 935, 937, 999, 997, 936, 975, 998, 974
304, 937, 939, 1001, 999, 938, 976, 1000, 975
305, 939, 941, 1003, 1001, 940, 977, 1002, 976
306, 941, 943, 1005, 1003, 942, 978, 1004, 977
307, 943, 945, 1007, 1005, 944, 979, 1006, 978
308, 945, 947, 1009, 1007, 946, 980, 1008, 979
309, 947, 949, 1011, 1009, 948, 981, 1010, 980
310, 949, 951, 1013, 1011, 950, 982, 1012, 981
311, 951, 953, 1015, 1013, 952, 983, 1014, 982
312, 953, 955, 1017, 1015, 954, 984, 1016, 983
313, 955, 957, 1019, 1017, 956, 985, 1018, 984
314, 957, 959, 1021, 1019, 958, 986, 1020, 985
315, 959, 961, 1023, 1021, 960, 987, 1022, 986
316, 961, 963, 1025, 1023, 962, 988, 1024, 987
317, 963, 965, 1027, 1025, 964, 989, 1026, 988
318, 965, 967, 1029, 1027, 966, 990, 1028, 989
319, 967, 969, 1031, 1029, 968, 991, 1030, 990
320, 969, 971, 1033, 1031, 970, 992, 1032, 991
321, 993, 995, 1057, 1055, 994, 1035, 1056, 1034
322, 995, 997, 1059, 1057, 996, 1036, 1058, 1035
323, 997, 999, 1061, 1059, 998, 1037, 1060, 1036
324, 999, 1001, 1063, 1061, 1000, 1038, 1062, 1037
325, 1001, 1003, 1065, 1063, 1002, 1039, 1064, 1038
326, 1003, 1005, 1067, 1065, 1004, 1040, 1066, 1039
327, 1005, 1007, 1069, 1067, 1006, 1041, 1068, 1040
328, 1007, 1009, 1071, 1069, 1008, 1042, 1070, 1041
329, 1009, 1011, 1073, 1071, 1010, 1043, 1072, 1042
330, 1011, 1013, 1075, 1073, 1012, 1044, 1074, 1043
331, 1013, 1015, 1077, 1075, 1014, 1045, 1076, 1044
332, 1015, 1017, 1079, 1077, 1016, 1046, 1078, 1045
333, 1017, 1019, 1081, 1079, 1018, 1047, 1080, 1046
334, 1019, 1021, 1083, 1081, 1020, 1048, 1082, 1047
335, 1021, 1023, 1085, 1083, 1022, 1049, 1084, 1048
336, 1023, 1025, 1087, 1085, 1024, 1050, 1086, 1049
337, 1025, 1027, 1089, 1087, 1026, 1051, 1088, 1050
338, 1027, 1029, 1091, 1089, 1028, 1052, 1090, 1051
339, 1029, 1031, 1093, 1091, 1030, 1053, 1092, 1052
340, 1031, 1033, 1095, 1093, 1032, 1054, 1094, 1053
341, 1055, 1057, 1119, 1117, 1056, 1097, 1118, 1096
342, 1057, 1059, 1121, 1119, 1058, 1098, 1120, 1097
343, 1059, 1061, 1123, 1121, 1060, 1099, 1122, 1098
344, 1061, 1063, 1125, 1123, 1062, 1100, 1124, 1099
345, 1063, 1065, 1127, 1125, 1064, 1101, 1126, 1100
346, 1065, 1067, 1129, 1127, 1066, 1102, 1128, 1101
347, 1067, 1069, 1131, 1129, 1068, 1103, 1130, 1102
348, 1069, 1071, 1133, 1131, 1070, 1104, 1132, 1103
349, 1071, 1073, 1135, 1133, 1072, 1105, 1134, 1104
350, 1073, 1075, 1137, 1135, 1074, 1106, 1136, 1105
351, 1075, 1077, 1139, 1137, 1076, 1107, 1138, 1106
352, 1077, 1079, 1141, 1139, 1078, 1108, 1140, 1107
353, 1079, 1081, 1143, 1141, 1080, 1109, 1142, 1108
354, 1081, 1083, 1145, 1143, 1082, 1110, 1144, 1109
355, 1083, 1085, 1147, 1145, 1084, 1111, 1146, 1110
356, 1085, 1087, 1149, 1147, 1086, 1112, 1148, 1111
357, 1087, 1089, 1151, 1149, 1088, 1113, 1150, 1112
358, 1089, 1091, 1153, 1151, 1090, 1114, 1152, 1113
359, 1091, 1093, 1155, 1153, 1092, 1115, 1154, 1114
360, 1093, 1095, 1157, 1155, 1094, 1116, 1156, 1115
361, 1117, 1119, 1181, 1179, 1118, 1159, 1180, 1158
362, 1119, 1121, 1183, 1181, 1120, 1160, 1182, 1159
363, 1121, 1123, 1185, 1183, 1122, 1161, 1184, 1160
364, 1123, 1125, 1187, 1185, 1124, 1162, 1186, 1161
365, 1125, 1127, 1189, 1187, 1126, 1163, 1188, 1162
366, 1127, 1129, 1191, 1189, 1128, 1164, 1190, 1163
367, 1129, 1131, 1193, 1191, 1130, 1165, 1192, 1164
368, 1131, 1133, 1195, 1193, 1132, 1166, 1194, 1165
369, 1133, 1135, 1197, 1195, 1134, 1167, 1196, 1166
370, 1135, 1137, 1199, 1197, 1136, 1168, 1198, 1167
371, 1137, 1139, 1201, 1199, 1138, 1169, 1200, 1168
372, 1139, 1141, 1203, 1201, 1140, 1170, 1202, 1169
373, 1141, 1143, 1205, 1203, 1142, 1171, 1204, 1170
374, 1143, 1145, 1207, 1205, 1144, 1172, 1206, 1171
375, 1145, 1147, 1209, 1207, 1146, 1173, 1208, 1172
376, 1147, 1149, 1211, 1209, 1148, 1174, 1210, 1173
377, 1149, 1151, 1213, 1211, 1150, 1175, 1212, 1174
378, 1151, 1153, 1215, 1213, 1152, 1176, 1214, 1175
379, 1153, 1155, 1217, 1215, 1154, 1177, 1216, 1176
380, 1155, 1157, 1219, 1217, 1156, 1178, 1218, 1177
381, 1179, 1181, 1243, 1241, 1180, 1221, 1242, 1220
382, 1181, 1183, 1245, 1243, 1182, 1222, 1244, 1221
383, 1183, 1185, 1247, 1245, 1184, 1223, 1246, 1222
384, 1185, 1187, 1249, 1247, 1186, 1224, 1248, 1223
385, 1187, 1189, 1251, 1249, 1188, 1225, 1250, 1224
386, 1189, 1191, 1253, 1251, 1190, 1226, 1252, 1225
387, 1191, 1193, 1255, 1253, 1192, 1227, 1254, 1226
388, 1193, 1195, 1257, 1255, 1194, 1228, 1256, 1227
389, 1195, 1197, 1259, 1257, 1196, 1229, 1258, 1228
390, 1197, 1199, 1261, 1259, 1198, 1230, 1260, 1229
391, 1199, 1201, 1263, 1261, 1200, 1231, 1262, 1230
392, 1201, 1203, 1265, 1263, 1202, 1232, 1264, 1231
393, 1203, 1205, 1267, 1265, 1204, 1233, 1266, 1232
394, 1205, 1207, 1269, 1267, 1206, 1234, 1268, 1233
395, 1207, 1209, 1271, 1269, 1208, 1235, 1270, 1234
396, 1209, 1211, 1273, 1271, 1210, 1236, 1272, 1235
397, 1211, 1213, 1275, 1273, 1212, 1237, 1274, 1236
398, 1213, 1215, 1277, 1275, 1214, 1238, 1276, 1237
399, 1215, 1217, 1279, 1277, 1216, 1239, 1278, 1238
400, 1217, 1219, 1281, 1279, 1218, 1240, 1280, 1239
*NSET, NSET=NCEN
641
*ELSET, ELSET=PATCHC
190, 191, 210, 211
*ELSET, ELSET=PATCHX
181, 182, 201, 202
*ELSET, ELSET=PATCHY
10, 30, 11, 31
*NSET, NSET=NX0
1, 42, 63, 104, 125, 166, 187, 228, 249, 290, 311, 352
373, 414, 435, 476, 497, 538, 559, 600, 621, 662, 683, 724
745, 786, 807, 848, 869, 910, 931, 972, 993, 1034, 1055, 1096
1117, 1158, 1179, 1220, 1241
*NSET, NSET=NXA
41, 62, 103, 124, 165, 186, 227, 248, 289, 310, 351, 372
413, 434, 475, 496, 537, 558, 599, 620, 661, 682, 723, 744
785, 806, 847, 868, 909, 930, 971, 992, 1033, 1054, 1095, 1116
1157, 1178, 1219, 1240, 1281
*NSET, NSET=NY0
1, 2, 3, 4, 5, 6, 7, 8, 9, 10, 11, 12
13, 14, 15, 16, 17, 18, 19, 20, 21, 22, 23, 24
25, 26, 27, 28, 29, 30, 31, 32, 33, 34, 35, 36
37, 38, 39, 40, 41
*NSET, NSET=NYB
1241, 1242, 1243, 1244, 1245, 1246, 1247, 1248, 1249, 1250, 1251, 1252
1253, 1254, 1255, 1256, 1257, 1258, 1259, 1260, 1261, 1262, 1263, 1264
1265, 1266, 1267, 1268, 1269, 1270, 1271, 1272, 1273, 1274, 1275, 1276
1277, 1278, 1279, 1280, 1281
*NSET, NSET=NALL, GENERATE
1, 1281, 1
**
*SHELL GENERAL SECTION, ELSET=EALL, DENSITY=30.2514
5.491650e+08, 2.641702e+07, 5.491650e+08, 1.552461e-10, 2.728769e-08, 4.137660e+07, 1.615853e-06, 1.661373e-06
2.251617e-25, 3.000546e+06, 1.622257e-06, 1.670780e-06, 2.985626e-25, 1.256596e+05, 2.937114e+06, 9.208540e-25
1.262866e-24, 3.124459e-10, 8.461209e-13, 1.487231e-10, 2.011171e+05
*TRANSVERSE SHEAR STIFFNESS
7.700977e+06, 7.542371e+06, -5.382646e-08
**
** SS-1 simple supports + drilling (cross-ply layup)
*BOUNDARY
NX0, 2, 3
NXA, 2, 3
NY0, 1, 1
NYB, 1, 1
NY0, 3, 3
NYB, 3, 3
NALL, 6, 6
*AMPLITUDE, NAME=FT
0., 1., 0.02, 1.
*STEP, NAME=PULSE, INC=800
*DYNAMIC
5e-05, 0.02, 5e-09, 5e-05
*DLOAD, AMPLITUDE=FT
1, P, 4.244297e+05
2, P, 1.262838e+06
3, P, 2.070151e+06
4, P, 2.826491e+06
5, P, 3.513232e+06
6, P, 4.113467e+06
7, P, 4.612414e+06
8, P, 4.997788e+06
9, P, 5.260100e+06
10, P, 5.392890e+06
11, P, 5.392890e+06
12, P, 5.260100e+06
13, P, 4.997788e+06
14, P, 4.612414e+06
15, P, 4.113467e+06
16, P, 3.513232e+06
17, P, 2.826491e+06
18, P, 2.070151e+06
19, P, 1.262838e+06
20, P, 4.244297e+05
21, P, 1.262838e+06
22, P, 3.757419e+06
23, P, 6.159480e+06
24, P, 8.409874e+06
25, P, 1.045319e+07
26, P, 1.223911e+07
27, P, 1.372367e+07
28, P, 1.487030e+07
29, P, 1.565078e+07
30, P, 1.604588e+07
31, P, 1.604588e+07
32, P, 1.565078e+07
33, P, 1.487030e+07
34, P, 1.372367e+07
35, P, 1.223911e+07
36, P, 1.045319e+07
37, P, 8.409874e+06
38, P, 6.159480e+06
39, P, 3.757419e+06
40, P, 1.262838e+06
41, P, 2.070151e+06
42, P, 6.159480e+06
43, P, 1.009714e+07
44, P, 1.378618e+07
45, P, 1.713575e+07
46, P, 2.006339e+07
47, P, 2.249700e+07
48, P, 2.437666e+07
49, P, 2.565608e+07
50, P, 2.630377e+07
51, P, 2.630377e+07
52, P, 2.565608e+07
53, P, 2.437666e+07
54, P, 2.249700e+07
55, P, 2.006339e+07
56, P, 1.713575e+07
57, P, 1.378618e+07
58, P, 1.009714e+07
59, P, 6.159480e+06
60, P, 2.070151e+06
61, P, 2.826491e+06
62, P, 8.409874e+06
63, P, 1.378618e+07
64, P, 1.882302e+07
65, P, 2.339638e+07
66, P, 2.739364e+07
67, P, 3.071638e+07
68, P, 3.328278e+07
69, P, 3.502965e+07
70, P, 3.591397e+07
71, P, 3.591397e+07
72, P, 3.502965e+07
73, P, 3.328278e+07
74, P, 3.071638e+07
75, P, 2.739364e+07
76, P, 2.339638e+07
77, P, 1.882302e+07
78, P, 1.378618e+07
79, P, 8.409874e+06
80, P, 2.826491e+06
81, P, 3.513232e+06
82, P, 1.045319e+07
83, P, 1.713575e+07
84, P, 2.339638e+07
85, P, 2.908091e+07
86, P, 3.404937e+07
87, P, 3.817942e+07
88, P, 4.136937e+07
89, P, 4.354067e+07
90, P, 4.463985e+07
91, P, 4.463985e+07
92, P, 4.354067e+07
93, P, 4.136937e+07
94, P, 3.817942e+07
95, P, 3.404937e+07
96, P, 2.908091e+07
97, P, 2.339638e+07
98, P, 1.713575e+07
99, P, 1.045319e+07
100, P, 3.513232e+06
101, P, 4.113467e+06
102, P, 1.223911e+07
103, P, 2.006339e+07
104, P, 2.739364e+07
105, P, 3.404937e+07
106, P, 3.986669e+07
107, P, 4.470236e+07
108, P, 4.843731e+07
109, P, 5.097957e+07
110, P, 5.226655e+07
111, P, 5.226655e+07
112, P, 5.097957e+07
113, P, 4.843731e+07
114, P, 4.470236e+07
115, P, 3.986669e+07
116, P, 3.404937e+07
117, P, 2.739364e+07
118, P, 2.006339e+07
119, P, 1.223911e+07
120, P, 4.113467e+06
121, P, 4.612414e+06
122, P, 1.372367e+07
123, P, 2.249700e+07
124, P, 3.071638e+07
125, P, 3.817942e+07
126, P, 4.470236e+07
127, P, 5.012458e+07
128, P, 5.431256e+07
129, P, 5.716319e+07
130, P, 5.860627e+07
131, P, 5.860627e+07
132, P, 5.716319e+07
133, P, 5.431256e+07
134, P, 5.012458e+07
135, P, 4.470236e+07
136, P, 3.817942e+07
137, P, 3.071638e+07
138, P, 2.249700e+07
139, P, 1.372367e+07
140, P, 4.612414e+06
141, P, 4.997788e+06
142, P, 1.487030e+07
143, P, 2.437666e+07
144, P, 3.328278e+07
145, P, 4.136937e+07
146, P, 4.843731e+07
147, P, 5.431256e+07
148, P, 5.885046e+07
149, P, 6.193926e+07
150, P, 6.350291e+07
151, P, 6.350291e+07
152, P, 6.193926e+07
153, P, 5.885046e+07
154, P, 5.431256e+07
155, P, 4.843731e+07
156, P, 4.136937e+07
157, P, 3.328278e+07
158, P, 2.437666e+07
159, P, 1.487030e+07
160, P, 4.997788e+06
161, P, 5.260100e+06
162, P, 1.565078e+07
163, P, 2.565608e+07
164, P, 3.502965e+07
165, P, 4.354067e+07
166, P, 5.097957e+07
167, P, 5.716319e+07
168, P, 6.193926e+07
169, P, 6.519018e+07
170, P, 6.683590e+07
171, P, 6.683590e+07
172, P, 6.519018e+07
173, P, 6.193926e+07
174, P, 5.716319e+07
175, P, 5.097957e+07
176, P, 4.354067e+07
177, P, 3.502965e+07
178, P, 2.565608e+07
179, P, 1.565078e+07
180, P, 5.260100e+06
181, P, 5.392890e+06
182, P, 1.604588e+07
183, P, 2.630377e+07
184, P, 3.591397e+07
185, P, 4.463985e+07
186, P, 5.226655e+07
187, P, 5.860627e+07
188, P, 6.350291e+07
189, P, 6.683590e+07
190, P, 6.852317e+07
191, P, 6.852317e+07
192, P, 6.683590e+07
193, P, 6.350291e+07
194, P, 5.860627e+07
195, P, 5.226655e+07
196, P, 4.463985e+07
197, P, 3.591397e+07
198, P, 2.630377e+07
199, P, 1.604588e+07
200, P, 5.392890e+06
201, P, 5.392890e+06
202, P, 1.604588e+07
203, P, 2.630377e+07
204, P, 3.591397e+07
205, P, 4.463985e+07
206, P, 5.226655e+07
207, P, 5.860627e+07
208, P, 6.350291e+07
209, P, 6.683590e+07
210, P, 6.852317e+07
211, P, 6.852317e+07
212, P, 6.683590e+07
213, P, 6.350291e+07
214, P, 5.860627e+07
215, P, 5.226655e+07
216, P, 4.463985e+07
217, P, 3.591397e+07
218, P, 2.630377e+07
219, P, 1.604588e+07
220, P, 5.392890e+06
221, P, 5.260100e+06
222, P, 1.565078e+07
223, P, 2.565608e+07
224, P, 3.502965e+07
225, P, 4.354067e+07
226, P, 5.097957e+07
227, P, 5.716319e+07
228, P, 6.193926e+07
229, P, 6.519018e+07
230, P, 6.683590e+07
231, P, 6.683590e+07
232, P, 6.519018e+07
233, P, 6.193926e+07
234, P, 5.716319e+07
235, P, 5.097957e+07
236, P, 4.354067e+07
237, P, 3.502965e+07
238, P, 2.565608e+07
239, P, 1.565078e+07
240, P, 5.260100e+06
241, P, 4.997788e+06
242, P, 1.487030e+07
243, P, 2.437666e+07
244, P, 3.328278e+07
245, P, 4.136937e+07
246, P, 4.843731e+07
247, P, 5.431256e+07
248, P, 5.885046e+07
249, P, 6.193926e+07
250, P, 6.350291e+07
251, P, 6.350291e+07
252, P, 6.193926e+07
253, P, 5.885046e+07
254, P, 5.431256e+07
255, P, 4.843731e+07
256, P, 4.136937e+07
257, P, 3.328278e+07
258, P, 2.437666e+07
259, P, 1.487030e+07
260, P, 4.997788e+06
261, P, 4.612414e+06
262, P, 1.372367e+07
263, P, 2.249700e+07
264, P, 3.071638e+07
265, P, 3.817942e+07
266, P, 4.470236e+07
267, P, 5.012458e+07
268, P, 5.431256e+07
269, P, 5.716319e+07
270, P, 5.860627e+07
271, P, 5.860627e+07
272, P, 5.716319e+07
273, P, 5.431256e+07
274, P, 5.012458e+07
275, P, 4.470236e+07
276, P, 3.817942e+07
277, P, 3.071638e+07
278, P, 2.249700e+07
279, P, 1.372367e+07
280, P, 4.612414e+06
281, P, 4.113467e+06
282, P, 1.223911e+07
283, P, 2.006339e+07
284, P, 2.739364e+07
285, P, 3.404937e+07
286, P, 3.986669e+07
287, P, 4.470236e+07
288, P, 4.843731e+07
289, P, 5.097957e+07
290, P, 5.226655e+07
291, P, 5.226655e+07
292, P, 5.097957e+07
293, P, 4.843731e+07
294, P, 4.470236e+07
295, P, 3.986669e+07
296, P, 3.404937e+07
297, P, 2.739364e+07
298, P, 2.006339e+07
299, P, 1.223911e+07
300, P, 4.113467e+06
301, P, 3.513232e+06
302, P, 1.045319e+07
303, P, 1.713575e+07
304, P, 2.339638e+07
305, P, 2.908091e+07
306, P, 3.404937e+07
307, P, 3.817942e+07
308, P, 4.136937e+07
309, P, 4.354067e+07
310, P, 4.463985e+07
311, P, 4.463985e+07
312, P, 4.354067e+07
313, P, 4.136937e+07
314, P, 3.817942e+07
315, P, 3.404937e+07
316, P, 2.908091e+07
317, P, 2.339638e+07
318, P, 1.713575e+07
319, P, 1.045319e+07
320, P, 3.513232e+06
321, P, 2.826491e+06
322, P, 8.409874e+06
323, P, 1.378618e+07
324, P, 1.882302e+07
325, P, 2.339638e+07
326, P, 2.739364e+07
327, P, 3.071638e+07
328, P, 3.328278e+07
329, P, 3.502965e+07
330, P, 3.591397e+07
331, P, 3.591397e+07
332, P, 3.502965e+07
333, P, 3.328278e+07
334, P, 3.071638e+07
335, P, 2.739364e+07
336, P, 2.339638e+07
337, P, 1.882302e+07
338, P, 1.378618e+07
339, P, 8.409874e+06
340, P, 2.826491e+06
341, P, 2.070151e+06
342, P, 6.159480e+06
343, P, 1.009714e+07
344, P, 1.378618e+07
345, P, 1.713575e+07
346, P, 2.006339e+07
347, P, 2.249700e+07
348, P, 2.437666e+07
349, P, 2.565608e+07
350, P, 2.630377e+07
351, P, 2.630377e+07
352, P, 2.565608e+07
353, P, 2.437666e+07
354, P, 2.249700e+07
355, P, 2.006339e+07
356, P, 1.713575e+07
357, P, 1.378618e+07
358, P, 1.009714e+07
359, P, 6.159480e+06
360, P, 2.070151e+06
361, P, 1.262838e+06
362, P, 3.757419e+06
363, P, 6.159480e+06
364, P, 8.409874e+06
365, P, 1.045319e+07
366, P, 1.223911e+07
367, P, 1.372367e+07
368, P, 1.487030e+07
369, P, 1.565078e+07
370, P, 1.604588e+07
371, P, 1.604588e+07
372, P, 1.565078e+07
373, P, 1.487030e+07
374, P, 1.372367e+07
375, P, 1.223911e+07
376, P, 1.045319e+07
377, P, 8.409874e+06
378, P, 6.159480e+06
379, P, 3.757419e+06
380, P, 1.262838e+06
381, P, 4.244297e+05
382, P, 1.262838e+06
383, P, 2.070151e+06
384, P, 2.826491e+06
385, P, 3.513232e+06
386, P, 4.113467e+06
387, P, 4.612414e+06
388, P, 4.997788e+06
389, P, 5.260100e+06
390, P, 5.392890e+06
391, P, 5.392890e+06
392, P, 5.260100e+06
393, P, 4.997788e+06
394, P, 4.612414e+06
395, P, 4.113467e+06
396, P, 3.513232e+06
397, P, 2.826491e+06
398, P, 2.070151e+06
399, P, 1.262838e+06
400, P, 4.244297e+05
*OUTPUT, FIELD, FREQUENCY=20
*ELEMENT OUTPUT
SF, SM
*NODE OUTPUT
U
*NODE PRINT, NSET=NCEN, FREQUENCY=1
U
*EL PRINT, ELSET=PATCHC, FREQUENCY=1
SF, SM
*EL PRINT, ELSET=PATCHC, FREQUENCY=1
COORD
*EL PRINT, ELSET=PATCHX, FREQUENCY=1
SF, SM
*EL PRINT, ELSET=PATCHX, FREQUENCY=1
COORD
*EL PRINT, ELSET=PATCHY, FREQUENCY=1
SF, SM
*EL PRINT, ELSET=PATCHY, FREQUENCY=1
COORD
*END STEP
