*HEADING
Cylindrical-bending strip, community FSDT composite section
** Yu-2003 sec.-6.2 analog, case1: plies (bottom->top) yu(0.5in/15), yu(0.5in/-15)
** L/h = 4 (a = 4 in, h = 1 in), p0 = 1 psi, psi/in units
** community FSDT: Abaqus ABD + its own shear; TSHR13/23 requested
** span a = 4 m, q0 = 1 Pa, 100 S4 elements; load q0*sin(pi*x/a) per element
*NODE
1, 0.00000000, 0.00000000, 0.0
2, 0.00000000, 0.04000000, 0.0
3, 0.04000000, 0.00000000, 0.0
4, 0.04000000, 0.04000000, 0.0
5, 0.08000000, 0.00000000, 0.0
6, 0.08000000, 0.04000000, 0.0
7, 0.12000000, 0.00000000, 0.0
8, 0.12000000, 0.04000000, 0.0
9, 0.16000000, 0.00000000, 0.0
10, 0.16000000, 0.04000000, 0.0
11, 0.20000000, 0.00000000, 0.0
12, 0.20000000, 0.04000000, 0.0
13, 0.24000000, 0.00000000, 0.0
14, 0.24000000, 0.04000000, 0.0
15, 0.28000000, 0.00000000, 0.0
16, 0.28000000, 0.04000000, 0.0
17, 0.32000000, 0.00000000, 0.0
18, 0.32000000, 0.04000000, 0.0
19, 0.36000000, 0.00000000, 0.0
20, 0.36000000, 0.04000000, 0.0
21, 0.40000000, 0.00000000, 0.0
22, 0.40000000, 0.04000000, 0.0
23, 0.44000000, 0.00000000, 0.0
24, 0.44000000, 0.04000000, 0.0
25, 0.48000000, 0.00000000, 0.0
26, 0.48000000, 0.04000000, 0.0
27, 0.52000000, 0.00000000, 0.0
28, 0.52000000, 0.04000000, 0.0
29, 0.56000000, 0.00000000, 0.0
30, 0.56000000, 0.04000000, 0.0
31, 0.60000000, 0.00000000, 0.0
32, 0.60000000, 0.04000000, 0.0
33, 0.64000000, 0.00000000, 0.0
34, 0.64000000, 0.04000000, 0.0
35, 0.68000000, 0.00000000, 0.0
36, 0.68000000, 0.04000000, 0.0
37, 0.72000000, 0.00000000, 0.0
38, 0.72000000, 0.04000000, 0.0
39, 0.76000000, 0.00000000, 0.0
40, 0.76000000, 0.04000000, 0.0
41, 0.80000000, 0.00000000, 0.0
42, 0.80000000, 0.04000000, 0.0
43, 0.84000000, 0.00000000, 0.0
44, 0.84000000, 0.04000000, 0.0
45, 0.88000000, 0.00000000, 0.0
46, 0.88000000, 0.04000000, 0.0
47, 0.92000000, 0.00000000, 0.0
48, 0.92000000, 0.04000000, 0.0
49, 0.96000000, 0.00000000, 0.0
50, 0.96000000, 0.04000000, 0.0
51, 1.00000000, 0.00000000, 0.0
52, 1.00000000, 0.04000000, 0.0
53, 1.04000000, 0.00000000, 0.0
54, 1.04000000, 0.04000000, 0.0
55, 1.08000000, 0.00000000, 0.0
56, 1.08000000, 0.04000000, 0.0
57, 1.12000000, 0.00000000, 0.0
58, 1.12000000, 0.04000000, 0.0
59, 1.16000000, 0.00000000, 0.0
60, 1.16000000, 0.04000000, 0.0
61, 1.20000000, 0.00000000, 0.0
62, 1.20000000, 0.04000000, 0.0
63, 1.24000000, 0.00000000, 0.0
64, 1.24000000, 0.04000000, 0.0
65, 1.28000000, 0.00000000, 0.0
66, 1.28000000, 0.04000000, 0.0
67, 1.32000000, 0.00000000, 0.0
68, 1.32000000, 0.04000000, 0.0
69, 1.36000000, 0.00000000, 0.0
70, 1.36000000, 0.04000000, 0.0
71, 1.40000000, 0.00000000, 0.0
72, 1.40000000, 0.04000000, 0.0
73, 1.44000000, 0.00000000, 0.0
74, 1.44000000, 0.04000000, 0.0
75, 1.48000000, 0.00000000, 0.0
76, 1.48000000, 0.04000000, 0.0
77, 1.52000000, 0.00000000, 0.0
78, 1.52000000, 0.04000000, 0.0
79, 1.56000000, 0.00000000, 0.0
80, 1.56000000, 0.04000000, 0.0
81, 1.60000000, 0.00000000, 0.0
82, 1.60000000, 0.04000000, 0.0
83, 1.64000000, 0.00000000, 0.0
84, 1.64000000, 0.04000000, 0.0
85, 1.68000000, 0.00000000, 0.0
86, 1.68000000, 0.04000000, 0.0
87, 1.72000000, 0.00000000, 0.0
88, 1.72000000, 0.04000000, 0.0
89, 1.76000000, 0.00000000, 0.0
90, 1.76000000, 0.04000000, 0.0
91, 1.80000000, 0.00000000, 0.0
92, 1.80000000, 0.04000000, 0.0
93, 1.84000000, 0.00000000, 0.0
94, 1.84000000, 0.04000000, 0.0
95, 1.88000000, 0.00000000, 0.0
96, 1.88000000, 0.04000000, 0.0
97, 1.92000000, 0.00000000, 0.0
98, 1.92000000, 0.04000000, 0.0
99, 1.96000000, 0.00000000, 0.0
100, 1.96000000, 0.04000000, 0.0
101, 2.00000000, 0.00000000, 0.0
102, 2.00000000, 0.04000000, 0.0
103, 2.04000000, 0.00000000, 0.0
104, 2.04000000, 0.04000000, 0.0
105, 2.08000000, 0.00000000, 0.0
106, 2.08000000, 0.04000000, 0.0
107, 2.12000000, 0.00000000, 0.0
108, 2.12000000, 0.04000000, 0.0
109, 2.16000000, 0.00000000, 0.0
110, 2.16000000, 0.04000000, 0.0
111, 2.20000000, 0.00000000, 0.0
112, 2.20000000, 0.04000000, 0.0
113, 2.24000000, 0.00000000, 0.0
114, 2.24000000, 0.04000000, 0.0
115, 2.28000000, 0.00000000, 0.0
116, 2.28000000, 0.04000000, 0.0
117, 2.32000000, 0.00000000, 0.0
118, 2.32000000, 0.04000000, 0.0
119, 2.36000000, 0.00000000, 0.0
120, 2.36000000, 0.04000000, 0.0
121, 2.40000000, 0.00000000, 0.0
122, 2.40000000, 0.04000000, 0.0
123, 2.44000000, 0.00000000, 0.0
124, 2.44000000, 0.04000000, 0.0
125, 2.48000000, 0.00000000, 0.0
126, 2.48000000, 0.04000000, 0.0
127, 2.52000000, 0.00000000, 0.0
128, 2.52000000, 0.04000000, 0.0
129, 2.56000000, 0.00000000, 0.0
130, 2.56000000, 0.04000000, 0.0
131, 2.60000000, 0.00000000, 0.0
132, 2.60000000, 0.04000000, 0.0
133, 2.64000000, 0.00000000, 0.0
134, 2.64000000, 0.04000000, 0.0
135, 2.68000000, 0.00000000, 0.0
136, 2.68000000, 0.04000000, 0.0
137, 2.72000000, 0.00000000, 0.0
138, 2.72000000, 0.04000000, 0.0
139, 2.76000000, 0.00000000, 0.0
140, 2.76000000, 0.04000000, 0.0
141, 2.80000000, 0.00000000, 0.0
142, 2.80000000, 0.04000000, 0.0
143, 2.84000000, 0.00000000, 0.0
144, 2.84000000, 0.04000000, 0.0
145, 2.88000000, 0.00000000, 0.0
146, 2.88000000, 0.04000000, 0.0
147, 2.92000000, 0.00000000, 0.0
148, 2.92000000, 0.04000000, 0.0
149, 2.96000000, 0.00000000, 0.0
150, 2.96000000, 0.04000000, 0.0
151, 3.00000000, 0.00000000, 0.0
152, 3.00000000, 0.04000000, 0.0
153, 3.04000000, 0.00000000, 0.0
154, 3.04000000, 0.04000000, 0.0
155, 3.08000000, 0.00000000, 0.0
156, 3.08000000, 0.04000000, 0.0
157, 3.12000000, 0.00000000, 0.0
158, 3.12000000, 0.04000000, 0.0
159, 3.16000000, 0.00000000, 0.0
160, 3.16000000, 0.04000000, 0.0
161, 3.20000000, 0.00000000, 0.0
162, 3.20000000, 0.04000000, 0.0
163, 3.24000000, 0.00000000, 0.0
164, 3.24000000, 0.04000000, 0.0
165, 3.28000000, 0.00000000, 0.0
166, 3.28000000, 0.04000000, 0.0
167, 3.32000000, 0.00000000, 0.0
168, 3.32000000, 0.04000000, 0.0
169, 3.36000000, 0.00000000, 0.0
170, 3.36000000, 0.04000000, 0.0
171, 3.40000000, 0.00000000, 0.0
172, 3.40000000, 0.04000000, 0.0
173, 3.44000000, 0.00000000, 0.0
174, 3.44000000, 0.04000000, 0.0
175, 3.48000000, 0.00000000, 0.0
176, 3.48000000, 0.04000000, 0.0
177, 3.52000000, 0.00000000, 0.0
178, 3.52000000, 0.04000000, 0.0
179, 3.56000000, 0.00000000, 0.0
180, 3.56000000, 0.04000000, 0.0
181, 3.60000000, 0.00000000, 0.0
182, 3.60000000, 0.04000000, 0.0
183, 3.64000000, 0.00000000, 0.0
184, 3.64000000, 0.04000000, 0.0
185, 3.68000000, 0.00000000, 0.0
186, 3.68000000, 0.04000000, 0.0
187, 3.72000000, 0.00000000, 0.0
188, 3.72000000, 0.04000000, 0.0
189, 3.76000000, 0.00000000, 0.0
190, 3.76000000, 0.04000000, 0.0
191, 3.80000000, 0.00000000, 0.0
192, 3.80000000, 0.04000000, 0.0
193, 3.84000000, 0.00000000, 0.0
194, 3.84000000, 0.04000000, 0.0
195, 3.88000000, 0.00000000, 0.0
196, 3.88000000, 0.04000000, 0.0
197, 3.92000000, 0.00000000, 0.0
198, 3.92000000, 0.04000000, 0.0
199, 3.96000000, 0.00000000, 0.0
200, 3.96000000, 0.04000000, 0.0
201, 4.00000000, 0.00000000, 0.0
202, 4.00000000, 0.04000000, 0.0
*ELEMENT, TYPE=S4, ELSET=EALL
1, 1, 3, 4, 2
2, 3, 5, 6, 4
3, 5, 7, 8, 6
4, 7, 9, 10, 8
5, 9, 11, 12, 10
6, 11, 13, 14, 12
7, 13, 15, 16, 14
8, 15, 17, 18, 16
9, 17, 19, 20, 18
10, 19, 21, 22, 20
11, 21, 23, 24, 22
12, 23, 25, 26, 24
13, 25, 27, 28, 26
14, 27, 29, 30, 28
15, 29, 31, 32, 30
16, 31, 33, 34, 32
17, 33, 35, 36, 34
18, 35, 37, 38, 36
19, 37, 39, 40, 38
20, 39, 41, 42, 40
21, 41, 43, 44, 42
22, 43, 45, 46, 44
23, 45, 47, 48, 46
24, 47, 49, 50, 48
25, 49, 51, 52, 50
26, 51, 53, 54, 52
27, 53, 55, 56, 54
28, 55, 57, 58, 56
29, 57, 59, 60, 58
30, 59, 61, 62, 60
31, 61, 63, 64, 62
32, 63, 65, 66, 64
33, 65, 67, 68, 66
34, 67, 69, 70, 68
35, 69, 71, 72, 70
36, 71, 73, 74, 72
37, 73, 75, 76, 74
38, 75, 77, 78, 76
39, 77, 79, 80, 78
40, 79, 81, 82, 80
41, 81, 83, 84, 82
42, 83, 85, 86, 84
43, 85, 87, 88, 86
44, 87, 89, 90, 88
45, 89, 91, 92, 90
46, 91, 93, 94, 92
47, 93, 95, 96, 94
48, 95, 97, 98, 96
49, 97, 99, 100, 98
50, 99, 101, 102, 100
51, 101, 103, 104, 102
52, 103, 105, 106, 104
53, 105, 107, 108, 106
54, 107, 109, 110, 108
55, 109, 111, 112, 110
56, 111, 113, 114, 112
57, 113, 115, 116, 114
58, 115, 117, 118, 116
59, 117, 119, 120, 118
60, 119, 121, 122, 120
61, 121, 123, 124, 122
62, 123, 125, 126, 124
63, 125, 127, 128, 126
64, 127, 129, 130, 128
65, 129, 131, 132, 130
66, 131, 133, 134, 132
67, 133, 135, 136, 134
68, 135, 137, 138, 136
69, 137, 139, 140, 138
70, 139, 141, 142, 140
71, 141, 143, 144, 142
72, 143, 145, 146, 144
73, 145, 147, 148, 146
74, 147, 149, 150, 148
75, 149, 151, 152, 150
76, 151, 153, 154, 152
77, 153, 155, 156, 154
78, 155, 157, 158, 156
79, 157, 159, 160, 158
80, 159, 161, 162, 160
81, 161, 163, 164, 162
82, 163, 165, 166, 164
83, 165, 167, 168, 166
84, 167, 169, 170, 168
85, 169, 171, 172, 170
86, 171, 173, 174, 172
87, 173, 175, 176, 174
88, 175, 177, 178, 176
89, 177, 179, 180, 178
90, 179, 181, 182, 180
91, 181, 183, 184, 182
92, 183, 185, 186, 184
93, 185, 187, 188, 186
94, 187, 189, 190, 188
95, 189, 191, 192, 190
96, 191, 193, 194, 192
97, 193, 195, 196, 194
98, 195, 197, 198, 196
99, 197, 199, 200, 198
100, 199, 201, 202, 200
*ELSET, ELSET=EMID
50
*ELSET, ELSET=EEND
1
*NSET, NSET=NX0
1
*NSET, NSET=NXA
201
*NSET, NSET=NMID
101
*NSET, NSET=NROW0, GENERATE
1, 201, 2
*NSET, NSET=NALL, GENERATE
1, 202, 1
**
** ---- ply materials (lamina) ----
*MATERIAL, NAME=YU
*ELASTIC, TYPE=LAMINA
2.500000e+07, 1.000000e+06, 0.25, 5.000000e+05, 5.000000e+05, 2.000000e+05
** ---- community FSDT: the ply stack; Abaqus builds ABD + shear ----
*SHELL SECTION, ELSET=EALL, COMPOSITE
5.00000000e-01, 3, YU, 15
5.00000000e-01, 3, YU, -15
**
** ---- width ties: infinite-plate condition for the coupled layup ----
*EQUATION
2
2, 1, 1.0, 1, 1, -1.0
2
2, 2, 1.0, 1, 2, -1.0
2
2, 3, 1.0, 1, 3, -1.0
2
2, 4, 1.0, 1, 4, -1.0
2
2, 5, 1.0, 1, 5, -1.0
2
2, 6, 1.0, 1, 6, -1.0
2
4, 1, 1.0, 3, 1, -1.0
2
4, 2, 1.0, 3, 2, -1.0
2
4, 3, 1.0, 3, 3, -1.0
2
4, 4, 1.0, 3, 4, -1.0
2
4, 5, 1.0, 3, 5, -1.0
2
4, 6, 1.0, 3, 6, -1.0
2
6, 1, 1.0, 5, 1, -1.0
2
6, 2, 1.0, 5, 2, -1.0
2
6, 3, 1.0, 5, 3, -1.0
2
6, 4, 1.0, 5, 4, -1.0
2
6, 5, 1.0, 5, 5, -1.0
2
6, 6, 1.0, 5, 6, -1.0
2
8, 1, 1.0, 7, 1, -1.0
2
8, 2, 1.0, 7, 2, -1.0
2
8, 3, 1.0, 7, 3, -1.0
2
8, 4, 1.0, 7, 4, -1.0
2
8, 5, 1.0, 7, 5, -1.0
2
8, 6, 1.0, 7, 6, -1.0
2
10, 1, 1.0, 9, 1, -1.0
2
10, 2, 1.0, 9, 2, -1.0
2
10, 3, 1.0, 9, 3, -1.0
2
10, 4, 1.0, 9, 4, -1.0
2
10, 5, 1.0, 9, 5, -1.0
2
10, 6, 1.0, 9, 6, -1.0
2
12, 1, 1.0, 11, 1, -1.0
2
12, 2, 1.0, 11, 2, -1.0
2
12, 3, 1.0, 11, 3, -1.0
2
12, 4, 1.0, 11, 4, -1.0
2
12, 5, 1.0, 11, 5, -1.0
2
12, 6, 1.0, 11, 6, -1.0
2
14, 1, 1.0, 13, 1, -1.0
2
14, 2, 1.0, 13, 2, -1.0
2
14, 3, 1.0, 13, 3, -1.0
2
14, 4, 1.0, 13, 4, -1.0
2
14, 5, 1.0, 13, 5, -1.0
2
14, 6, 1.0, 13, 6, -1.0
2
16, 1, 1.0, 15, 1, -1.0
2
16, 2, 1.0, 15, 2, -1.0
2
16, 3, 1.0, 15, 3, -1.0
2
16, 4, 1.0, 15, 4, -1.0
2
16, 5, 1.0, 15, 5, -1.0
2
16, 6, 1.0, 15, 6, -1.0
2
18, 1, 1.0, 17, 1, -1.0
2
18, 2, 1.0, 17, 2, -1.0
2
18, 3, 1.0, 17, 3, -1.0
2
18, 4, 1.0, 17, 4, -1.0
2
18, 5, 1.0, 17, 5, -1.0
2
18, 6, 1.0, 17, 6, -1.0
2
20, 1, 1.0, 19, 1, -1.0
2
20, 2, 1.0, 19, 2, -1.0
2
20, 3, 1.0, 19, 3, -1.0
2
20, 4, 1.0, 19, 4, -1.0
2
20, 5, 1.0, 19, 5, -1.0
2
20, 6, 1.0, 19, 6, -1.0
2
22, 1, 1.0, 21, 1, -1.0
2
22, 2, 1.0, 21, 2, -1.0
2
22, 3, 1.0, 21, 3, -1.0
2
22, 4, 1.0, 21, 4, -1.0
2
22, 5, 1.0, 21, 5, -1.0
2
22, 6, 1.0, 21, 6, -1.0
2
24, 1, 1.0, 23, 1, -1.0
2
24, 2, 1.0, 23, 2, -1.0
2
24, 3, 1.0, 23, 3, -1.0
2
24, 4, 1.0, 23, 4, -1.0
2
24, 5, 1.0, 23, 5, -1.0
2
24, 6, 1.0, 23, 6, -1.0
2
26, 1, 1.0, 25, 1, -1.0
2
26, 2, 1.0, 25, 2, -1.0
2
26, 3, 1.0, 25, 3, -1.0
2
26, 4, 1.0, 25, 4, -1.0
2
26, 5, 1.0, 25, 5, -1.0
2
26, 6, 1.0, 25, 6, -1.0
2
28, 1, 1.0, 27, 1, -1.0
2
28, 2, 1.0, 27, 2, -1.0
2
28, 3, 1.0, 27, 3, -1.0
2
28, 4, 1.0, 27, 4, -1.0
2
28, 5, 1.0, 27, 5, -1.0
2
28, 6, 1.0, 27, 6, -1.0
2
30, 1, 1.0, 29, 1, -1.0
2
30, 2, 1.0, 29, 2, -1.0
2
30, 3, 1.0, 29, 3, -1.0
2
30, 4, 1.0, 29, 4, -1.0
2
30, 5, 1.0, 29, 5, -1.0
2
30, 6, 1.0, 29, 6, -1.0
2
32, 1, 1.0, 31, 1, -1.0
2
32, 2, 1.0, 31, 2, -1.0
2
32, 3, 1.0, 31, 3, -1.0
2
32, 4, 1.0, 31, 4, -1.0
2
32, 5, 1.0, 31, 5, -1.0
2
32, 6, 1.0, 31, 6, -1.0
2
34, 1, 1.0, 33, 1, -1.0
2
34, 2, 1.0, 33, 2, -1.0
2
34, 3, 1.0, 33, 3, -1.0
2
34, 4, 1.0, 33, 4, -1.0
2
34, 5, 1.0, 33, 5, -1.0
2
34, 6, 1.0, 33, 6, -1.0
2
36, 1, 1.0, 35, 1, -1.0
2
36, 2, 1.0, 35, 2, -1.0
2
36, 3, 1.0, 35, 3, -1.0
2
36, 4, 1.0, 35, 4, -1.0
2
36, 5, 1.0, 35, 5, -1.0
2
36, 6, 1.0, 35, 6, -1.0
2
38, 1, 1.0, 37, 1, -1.0
2
38, 2, 1.0, 37, 2, -1.0
2
38, 3, 1.0, 37, 3, -1.0
2
38, 4, 1.0, 37, 4, -1.0
2
38, 5, 1.0, 37, 5, -1.0
2
38, 6, 1.0, 37, 6, -1.0
2
40, 1, 1.0, 39, 1, -1.0
2
40, 2, 1.0, 39, 2, -1.0
2
40, 3, 1.0, 39, 3, -1.0
2
40, 4, 1.0, 39, 4, -1.0
2
40, 5, 1.0, 39, 5, -1.0
2
40, 6, 1.0, 39, 6, -1.0
2
42, 1, 1.0, 41, 1, -1.0
2
42, 2, 1.0, 41, 2, -1.0
2
42, 3, 1.0, 41, 3, -1.0
2
42, 4, 1.0, 41, 4, -1.0
2
42, 5, 1.0, 41, 5, -1.0
2
42, 6, 1.0, 41, 6, -1.0
2
44, 1, 1.0, 43, 1, -1.0
2
44, 2, 1.0, 43, 2, -1.0
2
44, 3, 1.0, 43, 3, -1.0
2
44, 4, 1.0, 43, 4, -1.0
2
44, 5, 1.0, 43, 5, -1.0
2
44, 6, 1.0, 43, 6, -1.0
2
46, 1, 1.0, 45, 1, -1.0
2
46, 2, 1.0, 45, 2, -1.0
2
46, 3, 1.0, 45, 3, -1.0
2
46, 4, 1.0, 45, 4, -1.0
2
46, 5, 1.0, 45, 5, -1.0
2
46, 6, 1.0, 45, 6, -1.0
2
48, 1, 1.0, 47, 1, -1.0
2
48, 2, 1.0, 47, 2, -1.0
2
48, 3, 1.0, 47, 3, -1.0
2
48, 4, 1.0, 47, 4, -1.0
2
48, 5, 1.0, 47, 5, -1.0
2
48, 6, 1.0, 47, 6, -1.0
2
50, 1, 1.0, 49, 1, -1.0
2
50, 2, 1.0, 49, 2, -1.0
2
50, 3, 1.0, 49, 3, -1.0
2
50, 4, 1.0, 49, 4, -1.0
2
50, 5, 1.0, 49, 5, -1.0
2
50, 6, 1.0, 49, 6, -1.0
2
52, 1, 1.0, 51, 1, -1.0
2
52, 2, 1.0, 51, 2, -1.0
2
52, 3, 1.0, 51, 3, -1.0
2
52, 4, 1.0, 51, 4, -1.0
2
52, 5, 1.0, 51, 5, -1.0
2
52, 6, 1.0, 51, 6, -1.0
2
54, 1, 1.0, 53, 1, -1.0
2
54, 2, 1.0, 53, 2, -1.0
2
54, 3, 1.0, 53, 3, -1.0
2
54, 4, 1.0, 53, 4, -1.0
2
54, 5, 1.0, 53, 5, -1.0
2
54, 6, 1.0, 53, 6, -1.0
2
56, 1, 1.0, 55, 1, -1.0
2
56, 2, 1.0, 55, 2, -1.0
2
56, 3, 1.0, 55, 3, -1.0
2
56, 4, 1.0, 55, 4, -1.0
2
56, 5, 1.0, 55, 5, -1.0
2
56, 6, 1.0, 55, 6, -1.0
2
58, 1, 1.0, 57, 1, -1.0
2
58, 2, 1.0, 57, 2, -1.0
2
58, 3, 1.0, 57, 3, -1.0
2
58, 4, 1.0, 57, 4, -1.0
2
58, 5, 1.0, 57, 5, -1.0
2
58, 6, 1.0, 57, 6, -1.0
2
60, 1, 1.0, 59, 1, -1.0
2
60, 2, 1.0, 59, 2, -1.0
2
60, 3, 1.0, 59, 3, -1.0
2
60, 4, 1.0, 59, 4, -1.0
2
60, 5, 1.0, 59, 5, -1.0
2
60, 6, 1.0, 59, 6, -1.0
2
62, 1, 1.0, 61, 1, -1.0
2
62, 2, 1.0, 61, 2, -1.0
2
62, 3, 1.0, 61, 3, -1.0
2
62, 4, 1.0, 61, 4, -1.0
2
62, 5, 1.0, 61, 5, -1.0
2
62, 6, 1.0, 61, 6, -1.0
2
64, 1, 1.0, 63, 1, -1.0
2
64, 2, 1.0, 63, 2, -1.0
2
64, 3, 1.0, 63, 3, -1.0
2
64, 4, 1.0, 63, 4, -1.0
2
64, 5, 1.0, 63, 5, -1.0
2
64, 6, 1.0, 63, 6, -1.0
2
66, 1, 1.0, 65, 1, -1.0
2
66, 2, 1.0, 65, 2, -1.0
2
66, 3, 1.0, 65, 3, -1.0
2
66, 4, 1.0, 65, 4, -1.0
2
66, 5, 1.0, 65, 5, -1.0
2
66, 6, 1.0, 65, 6, -1.0
2
68, 1, 1.0, 67, 1, -1.0
2
68, 2, 1.0, 67, 2, -1.0
2
68, 3, 1.0, 67, 3, -1.0
2
68, 4, 1.0, 67, 4, -1.0
2
68, 5, 1.0, 67, 5, -1.0
2
68, 6, 1.0, 67, 6, -1.0
2
70, 1, 1.0, 69, 1, -1.0
2
70, 2, 1.0, 69, 2, -1.0
2
70, 3, 1.0, 69, 3, -1.0
2
70, 4, 1.0, 69, 4, -1.0
2
70, 5, 1.0, 69, 5, -1.0
2
70, 6, 1.0, 69, 6, -1.0
2
72, 1, 1.0, 71, 1, -1.0
2
72, 2, 1.0, 71, 2, -1.0
2
72, 3, 1.0, 71, 3, -1.0
2
72, 4, 1.0, 71, 4, -1.0
2
72, 5, 1.0, 71, 5, -1.0
2
72, 6, 1.0, 71, 6, -1.0
2
74, 1, 1.0, 73, 1, -1.0
2
74, 2, 1.0, 73, 2, -1.0
2
74, 3, 1.0, 73, 3, -1.0
2
74, 4, 1.0, 73, 4, -1.0
2
74, 5, 1.0, 73, 5, -1.0
2
74, 6, 1.0, 73, 6, -1.0
2
76, 1, 1.0, 75, 1, -1.0
2
76, 2, 1.0, 75, 2, -1.0
2
76, 3, 1.0, 75, 3, -1.0
2
76, 4, 1.0, 75, 4, -1.0
2
76, 5, 1.0, 75, 5, -1.0
2
76, 6, 1.0, 75, 6, -1.0
2
78, 1, 1.0, 77, 1, -1.0
2
78, 2, 1.0, 77, 2, -1.0
2
78, 3, 1.0, 77, 3, -1.0
2
78, 4, 1.0, 77, 4, -1.0
2
78, 5, 1.0, 77, 5, -1.0
2
78, 6, 1.0, 77, 6, -1.0
2
80, 1, 1.0, 79, 1, -1.0
2
80, 2, 1.0, 79, 2, -1.0
2
80, 3, 1.0, 79, 3, -1.0
2
80, 4, 1.0, 79, 4, -1.0
2
80, 5, 1.0, 79, 5, -1.0
2
80, 6, 1.0, 79, 6, -1.0
2
82, 1, 1.0, 81, 1, -1.0
2
82, 2, 1.0, 81, 2, -1.0
2
82, 3, 1.0, 81, 3, -1.0
2
82, 4, 1.0, 81, 4, -1.0
2
82, 5, 1.0, 81, 5, -1.0
2
82, 6, 1.0, 81, 6, -1.0
2
84, 1, 1.0, 83, 1, -1.0
2
84, 2, 1.0, 83, 2, -1.0
2
84, 3, 1.0, 83, 3, -1.0
2
84, 4, 1.0, 83, 4, -1.0
2
84, 5, 1.0, 83, 5, -1.0
2
84, 6, 1.0, 83, 6, -1.0
2
86, 1, 1.0, 85, 1, -1.0
2
86, 2, 1.0, 85, 2, -1.0
2
86, 3, 1.0, 85, 3, -1.0
2
86, 4, 1.0, 85, 4, -1.0
2
86, 5, 1.0, 85, 5, -1.0
2
86, 6, 1.0, 85, 6, -1.0
2
88, 1, 1.0, 87, 1, -1.0
2
88, 2, 1.0, 87, 2, -1.0
2
88, 3, 1.0, 87, 3, -1.0
2
88, 4, 1.0, 87, 4, -1.0
2
88, 5, 1.0, 87, 5, -1.0
2
88, 6, 1.0, 87, 6, -1.0
2
90, 1, 1.0, 89, 1, -1.0
2
90, 2, 1.0, 89, 2, -1.0
2
90, 3, 1.0, 89, 3, -1.0
2
90, 4, 1.0, 89, 4, -1.0
2
90, 5, 1.0, 89, 5, -1.0
2
90, 6, 1.0, 89, 6, -1.0
2
92, 1, 1.0, 91, 1, -1.0
2
92, 2, 1.0, 91, 2, -1.0
2
92, 3, 1.0, 91, 3, -1.0
2
92, 4, 1.0, 91, 4, -1.0
2
92, 5, 1.0, 91, 5, -1.0
2
92, 6, 1.0, 91, 6, -1.0
2
94, 1, 1.0, 93, 1, -1.0
2
94, 2, 1.0, 93, 2, -1.0
2
94, 3, 1.0, 93, 3, -1.0
2
94, 4, 1.0, 93, 4, -1.0
2
94, 5, 1.0, 93, 5, -1.0
2
94, 6, 1.0, 93, 6, -1.0
2
96, 1, 1.0, 95, 1, -1.0
2
96, 2, 1.0, 95, 2, -1.0
2
96, 3, 1.0, 95, 3, -1.0
2
96, 4, 1.0, 95, 4, -1.0
2
96, 5, 1.0, 95, 5, -1.0
2
96, 6, 1.0, 95, 6, -1.0
2
98, 1, 1.0, 97, 1, -1.0
2
98, 2, 1.0, 97, 2, -1.0
2
98, 3, 1.0, 97, 3, -1.0
2
98, 4, 1.0, 97, 4, -1.0
2
98, 5, 1.0, 97, 5, -1.0
2
98, 6, 1.0, 97, 6, -1.0
2
100, 1, 1.0, 99, 1, -1.0
2
100, 2, 1.0, 99, 2, -1.0
2
100, 3, 1.0, 99, 3, -1.0
2
100, 4, 1.0, 99, 4, -1.0
2
100, 5, 1.0, 99, 5, -1.0
2
100, 6, 1.0, 99, 6, -1.0
2
102, 1, 1.0, 101, 1, -1.0
2
102, 2, 1.0, 101, 2, -1.0
2
102, 3, 1.0, 101, 3, -1.0
2
102, 4, 1.0, 101, 4, -1.0
2
102, 5, 1.0, 101, 5, -1.0
2
102, 6, 1.0, 101, 6, -1.0
2
104, 1, 1.0, 103, 1, -1.0
2
104, 2, 1.0, 103, 2, -1.0
2
104, 3, 1.0, 103, 3, -1.0
2
104, 4, 1.0, 103, 4, -1.0
2
104, 5, 1.0, 103, 5, -1.0
2
104, 6, 1.0, 103, 6, -1.0
2
106, 1, 1.0, 105, 1, -1.0
2
106, 2, 1.0, 105, 2, -1.0
2
106, 3, 1.0, 105, 3, -1.0
2
106, 4, 1.0, 105, 4, -1.0
2
106, 5, 1.0, 105, 5, -1.0
2
106, 6, 1.0, 105, 6, -1.0
2
108, 1, 1.0, 107, 1, -1.0
2
108, 2, 1.0, 107, 2, -1.0
2
108, 3, 1.0, 107, 3, -1.0
2
108, 4, 1.0, 107, 4, -1.0
2
108, 5, 1.0, 107, 5, -1.0
2
108, 6, 1.0, 107, 6, -1.0
2
110, 1, 1.0, 109, 1, -1.0
2
110, 2, 1.0, 109, 2, -1.0
2
110, 3, 1.0, 109, 3, -1.0
2
110, 4, 1.0, 109, 4, -1.0
2
110, 5, 1.0, 109, 5, -1.0
2
110, 6, 1.0, 109, 6, -1.0
2
112, 1, 1.0, 111, 1, -1.0
2
112, 2, 1.0, 111, 2, -1.0
2
112, 3, 1.0, 111, 3, -1.0
2
112, 4, 1.0, 111, 4, -1.0
2
112, 5, 1.0, 111, 5, -1.0
2
112, 6, 1.0, 111, 6, -1.0
2
114, 1, 1.0, 113, 1, -1.0
2
114, 2, 1.0, 113, 2, -1.0
2
114, 3, 1.0, 113, 3, -1.0
2
114, 4, 1.0, 113, 4, -1.0
2
114, 5, 1.0, 113, 5, -1.0
2
114, 6, 1.0, 113, 6, -1.0
2
116, 1, 1.0, 115, 1, -1.0
2
116, 2, 1.0, 115, 2, -1.0
2
116, 3, 1.0, 115, 3, -1.0
2
116, 4, 1.0, 115, 4, -1.0
2
116, 5, 1.0, 115, 5, -1.0
2
116, 6, 1.0, 115, 6, -1.0
2
118, 1, 1.0, 117, 1, -1.0
2
118, 2, 1.0, 117, 2, -1.0
2
118, 3, 1.0, 117, 3, -1.0
2
118, 4, 1.0, 117, 4, -1.0
2
118, 5, 1.0, 117, 5, -1.0
2
118, 6, 1.0, 117, 6, -1.0
2
120, 1, 1.0, 119, 1, -1.0
2
120, 2, 1.0, 119, 2, -1.0
2
120, 3, 1.0, 119, 3, -1.0
2
120, 4, 1.0, 119, 4, -1.0
2
120, 5, 1.0, 119, 5, -1.0
2
120, 6, 1.0, 119, 6, -1.0
2
122, 1, 1.0, 121, 1, -1.0
2
122, 2, 1.0, 121, 2, -1.0
2
122, 3, 1.0, 121, 3, -1.0
2
122, 4, 1.0, 121, 4, -1.0
2
122, 5, 1.0, 121, 5, -1.0
2
122, 6, 1.0, 121, 6, -1.0
2
124, 1, 1.0, 123, 1, -1.0
2
124, 2, 1.0, 123, 2, -1.0
2
124, 3, 1.0, 123, 3, -1.0
2
124, 4, 1.0, 123, 4, -1.0
2
124, 5, 1.0, 123, 5, -1.0
2
124, 6, 1.0, 123, 6, -1.0
2
126, 1, 1.0, 125, 1, -1.0
2
126, 2, 1.0, 125, 2, -1.0
2
126, 3, 1.0, 125, 3, -1.0
2
126, 4, 1.0, 125, 4, -1.0
2
126, 5, 1.0, 125, 5, -1.0
2
126, 6, 1.0, 125, 6, -1.0
2
128, 1, 1.0, 127, 1, -1.0
2
128, 2, 1.0, 127, 2, -1.0
2
128, 3, 1.0, 127, 3, -1.0
2
128, 4, 1.0, 127, 4, -1.0
2
128, 5, 1.0, 127, 5, -1.0
2
128, 6, 1.0, 127, 6, -1.0
2
130, 1, 1.0, 129, 1, -1.0
2
130, 2, 1.0, 129, 2, -1.0
2
130, 3, 1.0, 129, 3, -1.0
2
130, 4, 1.0, 129, 4, -1.0
2
130, 5, 1.0, 129, 5, -1.0
2
130, 6, 1.0, 129, 6, -1.0
2
132, 1, 1.0, 131, 1, -1.0
2
132, 2, 1.0, 131, 2, -1.0
2
132, 3, 1.0, 131, 3, -1.0
2
132, 4, 1.0, 131, 4, -1.0
2
132, 5, 1.0, 131, 5, -1.0
2
132, 6, 1.0, 131, 6, -1.0
2
134, 1, 1.0, 133, 1, -1.0
2
134, 2, 1.0, 133, 2, -1.0
2
134, 3, 1.0, 133, 3, -1.0
2
134, 4, 1.0, 133, 4, -1.0
2
134, 5, 1.0, 133, 5, -1.0
2
134, 6, 1.0, 133, 6, -1.0
2
136, 1, 1.0, 135, 1, -1.0
2
136, 2, 1.0, 135, 2, -1.0
2
136, 3, 1.0, 135, 3, -1.0
2
136, 4, 1.0, 135, 4, -1.0
2
136, 5, 1.0, 135, 5, -1.0
2
136, 6, 1.0, 135, 6, -1.0
2
138, 1, 1.0, 137, 1, -1.0
2
138, 2, 1.0, 137, 2, -1.0
2
138, 3, 1.0, 137, 3, -1.0
2
138, 4, 1.0, 137, 4, -1.0
2
138, 5, 1.0, 137, 5, -1.0
2
138, 6, 1.0, 137, 6, -1.0
2
140, 1, 1.0, 139, 1, -1.0
2
140, 2, 1.0, 139, 2, -1.0
2
140, 3, 1.0, 139, 3, -1.0
2
140, 4, 1.0, 139, 4, -1.0
2
140, 5, 1.0, 139, 5, -1.0
2
140, 6, 1.0, 139, 6, -1.0
2
142, 1, 1.0, 141, 1, -1.0
2
142, 2, 1.0, 141, 2, -1.0
2
142, 3, 1.0, 141, 3, -1.0
2
142, 4, 1.0, 141, 4, -1.0
2
142, 5, 1.0, 141, 5, -1.0
2
142, 6, 1.0, 141, 6, -1.0
2
144, 1, 1.0, 143, 1, -1.0
2
144, 2, 1.0, 143, 2, -1.0
2
144, 3, 1.0, 143, 3, -1.0
2
144, 4, 1.0, 143, 4, -1.0
2
144, 5, 1.0, 143, 5, -1.0
2
144, 6, 1.0, 143, 6, -1.0
2
146, 1, 1.0, 145, 1, -1.0
2
146, 2, 1.0, 145, 2, -1.0
2
146, 3, 1.0, 145, 3, -1.0
2
146, 4, 1.0, 145, 4, -1.0
2
146, 5, 1.0, 145, 5, -1.0
2
146, 6, 1.0, 145, 6, -1.0
2
148, 1, 1.0, 147, 1, -1.0
2
148, 2, 1.0, 147, 2, -1.0
2
148, 3, 1.0, 147, 3, -1.0
2
148, 4, 1.0, 147, 4, -1.0
2
148, 5, 1.0, 147, 5, -1.0
2
148, 6, 1.0, 147, 6, -1.0
2
150, 1, 1.0, 149, 1, -1.0
2
150, 2, 1.0, 149, 2, -1.0
2
150, 3, 1.0, 149, 3, -1.0
2
150, 4, 1.0, 149, 4, -1.0
2
150, 5, 1.0, 149, 5, -1.0
2
150, 6, 1.0, 149, 6, -1.0
2
152, 1, 1.0, 151, 1, -1.0
2
152, 2, 1.0, 151, 2, -1.0
2
152, 3, 1.0, 151, 3, -1.0
2
152, 4, 1.0, 151, 4, -1.0
2
152, 5, 1.0, 151, 5, -1.0
2
152, 6, 1.0, 151, 6, -1.0
2
154, 1, 1.0, 153, 1, -1.0
2
154, 2, 1.0, 153, 2, -1.0
2
154, 3, 1.0, 153, 3, -1.0
2
154, 4, 1.0, 153, 4, -1.0
2
154, 5, 1.0, 153, 5, -1.0
2
154, 6, 1.0, 153, 6, -1.0
2
156, 1, 1.0, 155, 1, -1.0
2
156, 2, 1.0, 155, 2, -1.0
2
156, 3, 1.0, 155, 3, -1.0
2
156, 4, 1.0, 155, 4, -1.0
2
156, 5, 1.0, 155, 5, -1.0
2
156, 6, 1.0, 155, 6, -1.0
2
158, 1, 1.0, 157, 1, -1.0
2
158, 2, 1.0, 157, 2, -1.0
2
158, 3, 1.0, 157, 3, -1.0
2
158, 4, 1.0, 157, 4, -1.0
2
158, 5, 1.0, 157, 5, -1.0
2
158, 6, 1.0, 157, 6, -1.0
2
160, 1, 1.0, 159, 1, -1.0
2
160, 2, 1.0, 159, 2, -1.0
2
160, 3, 1.0, 159, 3, -1.0
2
160, 4, 1.0, 159, 4, -1.0
2
160, 5, 1.0, 159, 5, -1.0
2
160, 6, 1.0, 159, 6, -1.0
2
162, 1, 1.0, 161, 1, -1.0
2
162, 2, 1.0, 161, 2, -1.0
2
162, 3, 1.0, 161, 3, -1.0
2
162, 4, 1.0, 161, 4, -1.0
2
162, 5, 1.0, 161, 5, -1.0
2
162, 6, 1.0, 161, 6, -1.0
2
164, 1, 1.0, 163, 1, -1.0
2
164, 2, 1.0, 163, 2, -1.0
2
164, 3, 1.0, 163, 3, -1.0
2
164, 4, 1.0, 163, 4, -1.0
2
164, 5, 1.0, 163, 5, -1.0
2
164, 6, 1.0, 163, 6, -1.0
2
166, 1, 1.0, 165, 1, -1.0
2
166, 2, 1.0, 165, 2, -1.0
2
166, 3, 1.0, 165, 3, -1.0
2
166, 4, 1.0, 165, 4, -1.0
2
166, 5, 1.0, 165, 5, -1.0
2
166, 6, 1.0, 165, 6, -1.0
2
168, 1, 1.0, 167, 1, -1.0
2
168, 2, 1.0, 167, 2, -1.0
2
168, 3, 1.0, 167, 3, -1.0
2
168, 4, 1.0, 167, 4, -1.0
2
168, 5, 1.0, 167, 5, -1.0
2
168, 6, 1.0, 167, 6, -1.0
2
170, 1, 1.0, 169, 1, -1.0
2
170, 2, 1.0, 169, 2, -1.0
2
170, 3, 1.0, 169, 3, -1.0
2
170, 4, 1.0, 169, 4, -1.0
2
170, 5, 1.0, 169, 5, -1.0
2
170, 6, 1.0, 169, 6, -1.0
2
172, 1, 1.0, 171, 1, -1.0
2
172, 2, 1.0, 171, 2, -1.0
2
172, 3, 1.0, 171, 3, -1.0
2
172, 4, 1.0, 171, 4, -1.0
2
172, 5, 1.0, 171, 5, -1.0
2
172, 6, 1.0, 171, 6, -1.0
2
174, 1, 1.0, 173, 1, -1.0
2
174, 2, 1.0, 173, 2, -1.0
2
174, 3, 1.0, 173, 3, -1.0
2
174, 4, 1.0, 173, 4, -1.0
2
174, 5, 1.0, 173, 5, -1.0
2
174, 6, 1.0, 173, 6, -1.0
2
176, 1, 1.0, 175, 1, -1.0
2
176, 2, 1.0, 175, 2, -1.0
2
176, 3, 1.0, 175, 3, -1.0
2
176, 4, 1.0, 175, 4, -1.0
2
176, 5, 1.0, 175, 5, -1.0
2
176, 6, 1.0, 175, 6, -1.0
2
178, 1, 1.0, 177, 1, -1.0
2
178, 2, 1.0, 177, 2, -1.0
2
178, 3, 1.0, 177, 3, -1.0
2
178, 4, 1.0, 177, 4, -1.0
2
178, 5, 1.0, 177, 5, -1.0
2
178, 6, 1.0, 177, 6, -1.0
2
180, 1, 1.0, 179, 1, -1.0
2
180, 2, 1.0, 179, 2, -1.0
2
180, 3, 1.0, 179, 3, -1.0
2
180, 4, 1.0, 179, 4, -1.0
2
180, 5, 1.0, 179, 5, -1.0
2
180, 6, 1.0, 179, 6, -1.0
2
182, 1, 1.0, 181, 1, -1.0
2
182, 2, 1.0, 181, 2, -1.0
2
182, 3, 1.0, 181, 3, -1.0
2
182, 4, 1.0, 181, 4, -1.0
2
182, 5, 1.0, 181, 5, -1.0
2
182, 6, 1.0, 181, 6, -1.0
2
184, 1, 1.0, 183, 1, -1.0
2
184, 2, 1.0, 183, 2, -1.0
2
184, 3, 1.0, 183, 3, -1.0
2
184, 4, 1.0, 183, 4, -1.0
2
184, 5, 1.0, 183, 5, -1.0
2
184, 6, 1.0, 183, 6, -1.0
2
186, 1, 1.0, 185, 1, -1.0
2
186, 2, 1.0, 185, 2, -1.0
2
186, 3, 1.0, 185, 3, -1.0
2
186, 4, 1.0, 185, 4, -1.0
2
186, 5, 1.0, 185, 5, -1.0
2
186, 6, 1.0, 185, 6, -1.0
2
188, 1, 1.0, 187, 1, -1.0
2
188, 2, 1.0, 187, 2, -1.0
2
188, 3, 1.0, 187, 3, -1.0
2
188, 4, 1.0, 187, 4, -1.0
2
188, 5, 1.0, 187, 5, -1.0
2
188, 6, 1.0, 187, 6, -1.0
2
190, 1, 1.0, 189, 1, -1.0
2
190, 2, 1.0, 189, 2, -1.0
2
190, 3, 1.0, 189, 3, -1.0
2
190, 4, 1.0, 189, 4, -1.0
2
190, 5, 1.0, 189, 5, -1.0
2
190, 6, 1.0, 189, 6, -1.0
2
192, 1, 1.0, 191, 1, -1.0
2
192, 2, 1.0, 191, 2, -1.0
2
192, 3, 1.0, 191, 3, -1.0
2
192, 4, 1.0, 191, 4, -1.0
2
192, 5, 1.0, 191, 5, -1.0
2
192, 6, 1.0, 191, 6, -1.0
2
194, 1, 1.0, 193, 1, -1.0
2
194, 2, 1.0, 193, 2, -1.0
2
194, 3, 1.0, 193, 3, -1.0
2
194, 4, 1.0, 193, 4, -1.0
2
194, 5, 1.0, 193, 5, -1.0
2
194, 6, 1.0, 193, 6, -1.0
2
196, 1, 1.0, 195, 1, -1.0
2
196, 2, 1.0, 195, 2, -1.0
2
196, 3, 1.0, 195, 3, -1.0
2
196, 4, 1.0, 195, 4, -1.0
2
196, 5, 1.0, 195, 5, -1.0
2
196, 6, 1.0, 195, 6, -1.0
2
198, 1, 1.0, 197, 1, -1.0
2
198, 2, 1.0, 197, 2, -1.0
2
198, 3, 1.0, 197, 3, -1.0
2
198, 4, 1.0, 197, 4, -1.0
2
198, 5, 1.0, 197, 5, -1.0
2
198, 6, 1.0, 197, 6, -1.0
2
200, 1, 1.0, 199, 1, -1.0
2
200, 2, 1.0, 199, 2, -1.0
2
200, 3, 1.0, 199, 3, -1.0
2
200, 4, 1.0, 199, 4, -1.0
2
200, 5, 1.0, 199, 5, -1.0
2
200, 6, 1.0, 199, 6, -1.0
2
202, 1, 1.0, 201, 1, -1.0
2
202, 2, 1.0, 201, 2, -1.0
2
202, 3, 1.0, 201, 3, -1.0
2
202, 4, 1.0, 201, 4, -1.0
2
202, 5, 1.0, 201, 5, -1.0
2
202, 6, 1.0, 201, 6, -1.0
**
** ---- cylindrical bending + simple supports ----
*BOUNDARY
1, 2, 2
NX0, 3, 3
NXA, 3, 3
NX0, 1, 1
**
*STEP, NAME=SINELOAD
*STATIC
*DLOAD
1, P, 1.570732e-02
2, P, 4.710645e-02
3, P, 7.845910e-02
4, P, 1.097343e-01
5, P, 1.409012e-01
6, P, 1.719291e-01
7, P, 2.027873e-01
8, P, 2.334454e-01
9, P, 2.638730e-01
10, P, 2.940403e-01
11, P, 3.239174e-01
12, P, 3.534748e-01
13, P, 3.826834e-01
14, P, 4.115144e-01
15, P, 4.399392e-01
16, P, 4.679298e-01
17, P, 4.954587e-01
18, P, 5.224986e-01
19, P, 5.490228e-01
20, P, 5.750053e-01
21, P, 6.004202e-01
22, P, 6.252427e-01
23, P, 6.494480e-01
24, P, 6.730125e-01
25, P, 6.959128e-01
26, P, 7.181263e-01
27, P, 7.396311e-01
28, P, 7.604060e-01
29, P, 7.804304e-01
30, P, 7.996847e-01
31, P, 8.181497e-01
32, P, 8.358074e-01
33, P, 8.526402e-01
34, P, 8.686315e-01
35, P, 8.837656e-01
36, P, 8.980276e-01
37, P, 9.114033e-01
38, P, 9.238795e-01
39, P, 9.354440e-01
40, P, 9.460854e-01
41, P, 9.557930e-01
42, P, 9.645574e-01
43, P, 9.723699e-01
44, P, 9.792228e-01
45, P, 9.851093e-01
46, P, 9.900237e-01
47, P, 9.939610e-01
48, P, 9.969173e-01
49, P, 9.988899e-01
50, P, 9.998766e-01
51, P, 9.998766e-01
52, P, 9.988899e-01
53, P, 9.969173e-01
54, P, 9.939610e-01
55, P, 9.900237e-01
56, P, 9.851093e-01
57, P, 9.792228e-01
58, P, 9.723699e-01
59, P, 9.645574e-01
60, P, 9.557930e-01
61, P, 9.460854e-01
62, P, 9.354440e-01
63, P, 9.238795e-01
64, P, 9.114033e-01
65, P, 8.980276e-01
66, P, 8.837656e-01
67, P, 8.686315e-01
68, P, 8.526402e-01
69, P, 8.358074e-01
70, P, 8.181497e-01
71, P, 7.996847e-01
72, P, 7.804304e-01
73, P, 7.604060e-01
74, P, 7.396311e-01
75, P, 7.181263e-01
76, P, 6.959128e-01
77, P, 6.730125e-01
78, P, 6.494480e-01
79, P, 6.252427e-01
80, P, 6.004202e-01
81, P, 5.750053e-01
82, P, 5.490228e-01
83, P, 5.224986e-01
84, P, 4.954587e-01
85, P, 4.679298e-01
86, P, 4.399392e-01
87, P, 4.115144e-01
88, P, 3.826834e-01
89, P, 3.534748e-01
90, P, 3.239174e-01
91, P, 2.940403e-01
92, P, 2.638730e-01
93, P, 2.334454e-01
94, P, 2.027873e-01
95, P, 1.719291e-01
96, P, 1.409012e-01
97, P, 1.097343e-01
98, P, 7.845910e-02
99, P, 4.710645e-02
100, P, 1.570732e-02
*OUTPUT, FIELD
*ELEMENT OUTPUT
SF, SM
*NODE OUTPUT
U
*NODE PRINT, NSET=NMID
U
** the whole span row: the harmonic amplitudes (U, V, W, F1, F2) of the
** plate solution are least-squares fitted from these for the Eq.-65
** displacement recovery (examples/pagano_recovery/recovery_bench.py)
*NODE PRINT, NSET=NROW0
U
*EL PRINT, ELSET=EMID
SF, SM
*EL PRINT, ELSET=EEND
SF, SM
*EL PRINT, ELSET=EMID
TSHR13, TSHR23
*EL PRINT, ELSET=EEND
TSHR13, TSHR23
*END STEP
